4374
Lattice="22.30974 0.0 0.0 0.0 22.30974 0.0 0.0 0.0 22.30974" Properties=species:S:1:pos:R:3:group:I:1 pbc="T T T"
H 0.619715 0.619715 0.619715 0
H 0.619715 1.859145 1.859145 0
H 1.859145 0.619715 1.859145 0
H 1.859145 1.859145 0.619715 0
H 0.619715 0.619715 3.0985750000000003 0
H 0.619715 1.859145 4.338005 0
H 1.859145 0.619715 4.338005 0
H 1.859145 1.859145 3.0985750000000003 0
H 0.619715 0.619715 5.577435 0
H 0.619715 1.859145 6.816865 0
H 1.859145 0.619715 6.816865 0
H 1.859145 1.859145 5.577435 0
H 0.619715 0.619715 8.056295 0
H 0.619715 1.859145 9.295725000000001 0
H 1.859145 0.619715 9.295725000000001 0
H 1.859145 1.859145 8.056295 0
H 0.619715 0.619715 10.535155 0
H 0.619715 1.859145 11.774585000000002 0
H 1.859145 0.619715 11.774585000000002 0
H 1.859145 1.859145 10.535155 0
H 0.619715 0.619715 13.014015000000002 0
H 0.619715 1.859145 14.253445000000003 0
H 1.859145 0.619715 14.253445000000003 0
H 1.859145 1.859145 13.014015000000002 0
H 0.619715 0.619715 15.492875 0
H 0.619715 1.859145 16.732305 0
H 1.859145 0.619715 16.732305 0
H 1.859145 1.859145 15.492875 0
H 0.619715 0.619715 17.971735 0
H 0.619715 1.859145 19.211165 0
H 1.859145 0.619715 19.211165 0
H 1.859145 1.859145 17.971735 0
H 0.619715 0.619715 20.450595 0
H 0.619715 1.859145 21.690025000000002 0
H 1.859145 0.619715 21.690025000000002 0
H 1.859145 1.859145 20.450595 0
H 0.619715 3.0985750000000003 0.619715 0
H 0.619715 4.338005 1.859145 0
H 1.859145 3.0985750000000003 1.859145 0
H 1.859145 4.338005 0.619715 0
H 0.619715 3.0985750000000003 3.0985750000000003 0
H 0.619715 4.338005 4.338005 0
H 1.859145 3.0985750000000003 4.338005 0
H 1.859145 4.338005 3.0985750000000003 0
H 0.619715 3.0985750000000003 5.577435 0
H 0.619715 4.338005 6.816865 0
H 1.859145 3.0985750000000003 6.816865 0
H 1.859145 4.338005 5.577435 0
H 0.619715 3.0985750000000003 8.056295 0
H 0.619715 4.338005 9.295725000000001 0
H 1.859145 3.0985750000000003 9.295725000000001 0
H 1.859145 4.338005 8.056295 0
H 0.619715 3.0985750000000003 10.535155 0
H 0.619715 4.338005 11.774585000000002 0
H 1.859145 3.0985750000000003 11.774585000000002 0
H 1.859145 4.338005 10.535155 0
H 0.619715 3.0985750000000003 13.014015000000002 0
H 0.619715 4.338005 14.253445000000003 0
H 1.859145 3.0985750000000003 14.253445000000003 0
H 1.859145 4.338005 13.014015000000002 0
H 0.619715 3.0985750000000003 15.492875 0
H 0.619715 4.338005 16.732305 0
H 1.859145 3.0985750000000003 16.732305 0
H 1.859145 4.338005 15.492875 0
H 0.619715 3.0985750000000003 17.971735 0
H 0.619715 4.338005 19.211165 0
H 1.859145 3.0985750000000003 19.211165 0
H 1.859145 4.338005 17.971735 0
H 0.619715 3.0985750000000003 20.450595 0
H 0.619715 4.338005 21.690025000000002 0
H 1.859145 3.0985750000000003 21.690025000000002 0
H 1.859145 4.338005 20.450595 0
H 0.619715 5.577435 0.619715 0
H 0.619715 6.816865 1.859145 0
H 1.859145 5.577435 1.859145 0
H 1.859145 6.816865 0.619715 0
H 0.619715 5.577435 3.0985750000000003 0
H 0.619715 6.816865 4.338005 0
H 1.859145 5.577435 4.338005 0
H 1.859145 6.816865 3.0985750000000003 0
H 0.619715 5.577435 5.577435 0
H 0.619715 6.816865 6.816865 0
H 1.859145 5.577435 6.816865 0
H 1.859145 6.816865 5.577435 0
H 0.619715 5.577435 8.056295 0
H 0.619715 6.816865 9.295725000000001 0
H 1.859145 5.577435 9.295725000000001 0
H 1.859145 6.816865 8.056295 0
H 0.619715 5.577435 10.535155 0
H 0.619715 6.816865 11.774585000000002 0
H 1.859145 5.577435 11.774585000000002 0
H 1.859145 6.816865 10.535155 0
H 0.619715 5.577435 13.014015000000002 0
H 0.619715 6.816865 14.253445000000003 0
H 1.859145 5.577435 14.253445000000003 0
H 1.859145 6.816865 13.014015000000002 0
H 0.619715 5.577435 15.492875 0
H 0.619715 6.816865 16.732305 0
H 1.859145 5.577435 16.732305 0
H 1.859145 6.816865 15.492875 0
H 0.619715 5.577435 17.971735 0
H 0.619715 6.816865 19.211165 0
H 1.859145 5.577435 19.211165 0
H 1.859145 6.816865 17.971735 0
H 0.619715 5.577435 20.450595 0
H 0.619715 6.816865 21.690025000000002 0
H 1.859145 5.577435 21.690025000000002 0
H 1.859145 6.816865 20.450595 0
H 0.619715 8.056295 0.619715 0
H 0.619715 9.295725000000001 1.859145 0
H 1.859145 8.056295 1.859145 0
H 1.859145 9.295725000000001 0.619715 0
H 0.619715 8.056295 3.0985750000000003 0
H 0.619715 9.295725000000001 4.338005 0
H 1.859145 8.056295 4.338005 0
H 1.859145 9.295725000000001 3.0985750000000003 0
H 0.619715 8.056295 5.577435 0
H 0.619715 9.295725000000001 6.816865 0
H 1.859145 8.056295 6.816865 0
H 1.859145 9.295725000000001 5.577435 0
H 0.619715 8.056295 8.056295 0
H 0.619715 9.295725000000001 9.295725000000001 0
H 1.859145 8.056295 9.295725000000001 0
H 1.859145 9.295725000000001 8.056295 0
H 0.619715 8.056295 10.535155 0
H 0.619715 9.295725000000001 11.774585000000002 0
H 1.859145 8.056295 11.774585000000002 0
H 1.859145 9.295725000000001 10.535155 0
H 0.619715 8.056295 13.014015000000002 0
H 0.619715 9.295725000000001 14.253445000000003 0
H 1.859145 8.056295 14.253445000000003 0
H 1.859145 9.295725000000001 13.014015000000002 0
H 0.619715 8.056295 15.492875 0
H 0.619715 9.295725000000001 16.732305 0
H 1.859145 8.056295 16.732305 0
H 1.859145 9.295725000000001 15.492875 0
H 0.619715 8.056295 17.971735 0
H 0.619715 9.295725000000001 19.211165 0
H 1.859145 8.056295 19.211165 0
H 1.859145 9.295725000000001 17.971735 0
H 0.619715 8.056295 20.450595 0
H 0.619715 9.295725000000001 21.690025000000002 0
H 1.859145 8.056295 21.690025000000002 0
H 1.859145 9.295725000000001 20.450595 0
H 0.619715 10.535155 0.619715 0
H 0.619715 11.774585000000002 1.859145 0
H 1.859145 10.535155 1.859145 0
H 1.859145 11.774585000000002 0.619715 0
H 0.619715 10.535155 3.0985750000000003 0
H 0.619715 11.774585000000002 4.338005 0
H 1.859145 10.535155 4.338005 0
H 1.859145 11.774585000000002 3.0985750000000003 0
H 0.619715 10.535155 5.577435 0
H 0.619715 11.774585000000002 6.816865 0
H 1.859145 10.535155 6.816865 0
H 1.859145 11.774585000000002 5.577435 0
H 0.619715 10.535155 8.056295 0
H 0.619715 11.774585000000002 9.295725000000001 0
H 1.859145 10.535155 9.295725000000001 0
H 1.859145 11.774585000000002 8.056295 0
H 0.619715 10.535155 10.535155 0
H 0.619715 11.774585000000002 11.774585000000002 0
H 1.859145 10.535155 11.774585000000002 0
H 1.859145 11.774585000000002 10.535155 0
H 0.619715 10.535155 13.014015000000002 0
H 0.619715 11.774585000000002 14.253445000000003 0
H 1.859145 10.535155 14.253445000000003 0
H 1.859145 11.774585000000002 13.014015000000002 0
H 0.619715 10.535155 15.492875 0
H 0.619715 11.774585000000002 16.732305 0
H 1.859145 10.535155 16.732305 0
H 1.859145 11.774585000000002 15.492875 0
H 0.619715 10.535155 17.971735 0
H 0.619715 11.774585000000002 19.211165 0
H 1.859145 10.535155 19.211165 0
H 1.859145 11.774585000000002 17.971735 0
H 0.619715 10.535155 20.450595 0
H 0.619715 11.774585000000002 21.690025000000002 0
H 1.859145 10.535155 21.690025000000002 0
H 1.859145 11.774585000000002 20.450595 0
H 0.619715 13.014015000000002 0.619715 0
H 0.619715 14.253445000000003 1.859145 0
H 1.859145 13.014015000000002 1.859145 0
H 1.859145 14.253445000000003 0.619715 0
H 0.619715 13.014015000000002 3.0985750000000003 0
H 0.619715 14.253445000000003 4.338005 0
H 1.859145 13.014015000000002 4.338005 0
H 1.859145 14.253445000000003 3.0985750000000003 0
H 0.619715 13.014015000000002 5.577435 0
H 0.619715 14.253445000000003 6.816865 0
H 1.859145 13.014015000000002 6.816865 0
H 1.859145 14.253445000000003 5.577435 0
H 0.619715 13.014015000000002 8.056295 0
H 0.619715 14.253445000000003 9.295725000000001 0
H 1.859145 13.014015000000002 9.295725000000001 0
H 1.859145 14.253445000000003 8.056295 0
H 0.619715 13.014015000000002 10.535155 0
H 0.619715 14.253445000000003 11.774585000000002 0
H 1.859145 13.014015000000002 11.774585000000002 0
H 1.859145 14.253445000000003 10.535155 0
H 0.619715 13.014015000000002 13.014015000000002 0
H 0.619715 14.253445000000003 14.253445000000003 0
H 1.859145 13.014015000000002 14.253445000000003 0
H 1.859145 14.253445000000003 13.014015000000002 0
H 0.619715 13.014015000000002 15.492875 0
H 0.619715 14.253445000000003 16.732305 0
H 1.859145 13.014015000000002 16.732305 0
H 1.859145 14.253445000000003 15.492875 0
H 0.619715 13.014015000000002 17.971735 0
H 0.619715 14.253445000000003 19.211165 0
H 1.859145 13.014015000000002 19.211165 0
H 1.859145 14.253445000000003 17.971735 0
H 0.619715 13.014015000000002 20.450595 0
H 0.619715 14.253445000000003 21.690025000000002 0
H 1.859145 13.014015000000002 21.690025000000002 0
H 1.859145 14.253445000000003 20.450595 0
H 0.619715 15.492875 0.619715 0
H 0.619715 16.732305 1.859145 0
H 1.859145 15.492875 1.859145 0
H 1.859145 16.732305 0.619715 0
H 0.619715 15.492875 3.0985750000000003 0
H 0.619715 16.732305 4.338005 0
H 1.859145 15.492875 4.338005 0
H 1.859145 16.732305 3.0985750000000003 0
H 0.619715 15.492875 5.577435 0
H 0.619715 16.732305 6.816865 0
H 1.859145 15.492875 6.816865 0
H 1.859145 16.732305 5.577435 0
H 0.619715 15.492875 8.056295 0
H 0.619715 16.732305 9.295725000000001 0
H 1.859145 15.492875 9.295725000000001 0
H 1.859145 16.732305 8.056295 0
H 0.619715 15.492875 10.535155 0
H 0.619715 16.732305 11.774585000000002 0
H 1.859145 15.492875 11.774585000000002 0
H 1.859145 16.732305 10.535155 0
H 0.619715 15.492875 13.014015000000002 0
H 0.619715 16.732305 14.253445000000003 0
H 1.859145 15.492875 14.253445000000003 0
H 1.859145 16.732305 13.014015000000002 0
H 0.619715 15.492875 15.492875 0
H 0.619715 16.732305 16.732305 0
H 1.859145 15.492875 16.732305 0
H 1.859145 16.732305 15.492875 0
H 0.619715 15.492875 17.971735 0
H 0.619715 16.732305 19.211165 0
H 1.859145 15.492875 19.211165 0
H 1.859145 16.732305 17.971735 0
H 0.619715 15.492875 20.450595 0
H 0.619715 16.732305 21.690025000000002 0
H 1.859145 15.492875 21.690025000000002 0
H 1.859145 16.732305 20.450595 0
H 0.619715 17.971735 0.619715 0
H 0.619715 19.211165 1.859145 0
H 1.859145 17.971735 1.859145 0
H 1.859145 19.211165 0.619715 0
H 0.619715 17.971735 3.0985750000000003 0
H 0.619715 19.211165 4.338005 0
H 1.859145 17.971735 4.338005 0
H 1.859145 19.211165 3.0985750000000003 0
H 0.619715 17.971735 5.577435 0
H 0.619715 19.211165 6.816865 0
H 1.859145 17.971735 6.816865 0
H 1.859145 19.211165 5.577435 0
H 0.619715 17.971735 8.056295 0
H 0.619715 19.211165 9.295725000000001 0
H 1.859145 17.971735 9.295725000000001 0
H 1.859145 19.211165 8.056295 0
H 0.619715 17.971735 10.535155 0
H 0.619715 19.211165 11.774585000000002 0
H 1.859145 17.971735 11.774585000000002 0
H 1.859145 19.211165 10.535155 0
H 0.619715 17.971735 13.014015000000002 0
H 0.619715 19.211165 14.253445000000003 0
H 1.859145 17.971735 14.253445000000003 0
H 1.859145 19.211165 13.014015000000002 0
H 0.619715 17.971735 15.492875 0
H 0.619715 19.211165 16.732305 0
H 1.859145 17.971735 16.732305 0
H 1.859145 19.211165 15.492875 0
H 0.619715 17.971735 17.971735 0
H 0.619715 19.211165 19.211165 0
H 1.859145 17.971735 19.211165 0
H 1.859145 19.211165 17.971735 0
H 0.619715 17.971735 20.450595 0
H 0.619715 19.211165 21.690025000000002 0
H 1.859145 17.971735 21.690025000000002 0
H 1.859145 19.211165 20.450595 0
H 0.619715 20.450595 0.619715 0
H 0.619715 21.690025000000002 1.859145 0
H 1.859145 20.450595 1.859145 0
H 1.859145 21.690025000000002 0.619715 0
H 0.619715 20.450595 3.0985750000000003 0
H 0.619715 21.690025000000002 4.338005 0
H 1.859145 20.450595 4.338005 0
H 1.859145 21.690025000000002 3.0985750000000003 0
H 0.619715 20.450595 5.577435 0
H 0.619715 21.690025000000002 6.816865 0
H 1.859145 20.450595 6.816865 0
H 1.859145 21.690025000000002 5.577435 0
H 0.619715 20.450595 8.056295 0
H 0.619715 21.690025000000002 9.295725000000001 0
H 1.859145 20.450595 9.295725000000001 0
H 1.859145 21.690025000000002 8.056295 0
H 0.619715 20.450595 10.535155 0
H 0.619715 21.690025000000002 11.774585000000002 0
H 1.859145 20.450595 11.774585000000002 0
H 1.859145 21.690025000000002 10.535155 0
H 0.619715 20.450595 13.014015000000002 0
H 0.619715 21.690025000000002 14.253445000000003 0
H 1.859145 20.450595 14.253445000000003 0
H 1.859145 21.690025000000002 13.014015000000002 0
H 0.619715 20.450595 15.492875 0
H 0.619715 21.690025000000002 16.732305 0
H 1.859145 20.450595 16.732305 0
H 1.859145 21.690025000000002 15.492875 0
H 0.619715 20.450595 17.971735 0
H 0.619715 21.690025000000002 19.211165 0
H 1.859145 20.450595 19.211165 0
H 1.859145 21.690025000000002 17.971735 0
H 0.619715 20.450595 20.450595 0
H 0.619715 21.690025000000002 21.690025000000002 0
H 1.859145 20.450595 21.690025000000002 0
H 1.859145 21.690025000000002 20.450595 0
H 3.0985750000000003 0.619715 0.619715 0
H 3.0985750000000003 1.859145 1.859145 0
H 4.338005 0.619715 1.859145 0
H 4.338005 1.859145 0.619715 0
H 3.0985750000000003 0.619715 3.0985750000000003 0
H 3.0985750000000003 1.859145 4.338005 0
H 4.338005 0.619715 4.338005 0
H 4.338005 1.859145 3.0985750000000003 0
H 3.0985750000000003 0.619715 5.577435 0
H 3.0985750000000003 1.859145 6.816865 0
H 4.338005 0.619715 6.816865 0
H 4.338005 1.859145 5.577435 0
H 3.0985750000000003 0.619715 8.056295 0
H 3.0985750000000003 1.859145 9.295725000000001 0
H 4.338005 0.619715 9.295725000000001 0
H 4.338005 1.859145 8.056295 0
H 3.0985750000000003 0.619715 10.535155 0
H 3.0985750000000003 1.859145 11.774585000000002 0
H 4.338005 0.619715 11.774585000000002 0
H 4.338005 1.859145 10.535155 0
H 3.0985750000000003 0.619715 13.014015000000002 0
H 3.0985750000000003 1.859145 14.253445000000003 0
H 4.338005 0.619715 14.253445000000003 0
H 4.338005 1.859145 13.014015000000002 0
H 3.0985750000000003 0.619715 15.492875 0
H 3.0985750000000003 1.859145 16.732305 0
H 4.338005 0.619715 16.732305 0
H 4.338005 1.859145 15.492875 0
H 3.0985750000000003 0.619715 17.971735 0
H 3.0985750000000003 1.859145 19.211165 0
H 4.338005 0.619715 19.211165 0
H 4.338005 1.859145 17.971735 0
H 3.0985750000000003 0.619715 20.450595 0
H 3.0985750000000003 1.859145 21.690025000000002 0
H 4.338005 0.619715 21.690025000000002 0
H 4.338005 1.859145 20.450595 0
H 3.0985750000000003 3.0985750000000003 0.619715 0
H 3.0985750000000003 4.338005 1.859145 0
H 4.338005 3.0985750000000003 1.859145 0
H 4.338005 4.338005 0.619715 0
H 3.0985750000000003 3.0985750000000003 3.0985750000000003 0
H 3.0985750000000003 4.338005 4.338005 0
H 4.338005 3.0985750000000003 4.338005 0
H 4.338005 4.338005 3.0985750000000003 0
H 3.0985750000000003 3.0985750000000003 5.577435 0
H 3.0985750000000003 4.338005 6.816865 0
H 4.338005 3.0985750000000003 6.816865 0
H 4.338005 4.338005 5.577435 0
H 3.0985750000000003 3.0985750000000003 8.056295 0
H 3.0985750000000003 4.338005 9.295725000000001 0
H 4.338005 3.0985750000000003 9.295725000000001 0
H 4.338005 4.338005 8.056295 0
H 3.0985750000000003 3.0985750000000003 10.535155 0
H 3.0985750000000003 4.338005 11.774585000000002 0
H 4.338005 3.0985750000000003 11.774585000000002 0
H 4.338005 4.338005 10.535155 0
H 3.0985750000000003 3.0985750000000003 13.014015000000002 0
H 3.0985750000000003 4.338005 14.253445000000003 0
H 4.338005 3.0985750000000003 14.253445000000003 0
H 4.338005 4.338005 13.014015000000002 0
H 3.0985750000000003 3.0985750000000003 15.492875 0
H 3.0985750000000003 4.338005 16.732305 0
H 4.338005 3.0985750000000003 16.732305 0
H 4.338005 4.338005 15.492875 0
H 3.0985750000000003 3.0985750000000003 17.971735 0
H 3.0985750000000003 4.338005 19.211165 0
H 4.338005 3.0985750000000003 19.211165 0
H 4.338005 4.338005 17.971735 0
H 3.0985750000000003 3.0985750000000003 20.450595 0
H 3.0985750000000003 4.338005 21.690025000000002 0
H 4.338005 3.0985750000000003 21.690025000000002 0
H 4.338005 4.338005 20.450595 0
H 3.0985750000000003 5.577435 0.619715 0
H 3.0985750000000003 6.816865 1.859145 0
H 4.338005 5.577435 1.859145 0
H 4.338005 6.816865 0.619715 0
H 3.0985750000000003 5.577435 3.0985750000000003 0
H 3.0985750000000003 6.816865 4.338005 0
H 4.338005 5.577435 4.338005 0
H 4.338005 6.816865 3.0985750000000003 0
H 3.0985750000000003 5.577435 5.577435 0
H 3.0985750000000003 6.816865 6.816865 0
H 4.338005 5.577435 6.816865 0
H 4.338005 6.816865 5.577435 0
H 3.0985750000000003 5.577435 8.056295 0
H 3.0985750000000003 6.816865 9.295725000000001 0
H 4.338005 5.577435 9.295725000000001 0
H 4.338005 6.816865 8.056295 0
H 3.0985750000000003 5.577435 10.535155 0
H 3.0985750000000003 6.816865 11.774585000000002 0
H 4.338005 5.577435 11.774585000000002 0
H 4.338005 6.816865 10.535155 0
H 3.0985750000000003 5.577435 13.014015000000002 0
H 3.0985750000000003 6.816865 14.253445000000003 0
H 4.338005 5.577435 14.253445000000003 0
H 4.338005 6.816865 13.014015000000002 0
H 3.0985750000000003 5.577435 15.492875 0
H 3.0985750000000003 6.816865 16.732305 0
H 4.338005 5.577435 16.732305 0
H 4.338005 6.816865 15.492875 0
H 3.0985750000000003 5.577435 17.971735 0
H 3.0985750000000003 6.816865 19.211165 0
H 4.338005 5.577435 19.211165 0
H 4.338005 6.816865 17.971735 0
H 3.0985750000000003 5.577435 20.450595 0
H 3.0985750000000003 6.816865 21.690025000000002 0
H 4.338005 5.577435 21.690025000000002 0
H 4.338005 6.816865 20.450595 0
H 3.0985750000000003 8.056295 0.619715 0
H 3.0985750000000003 9.295725000000001 1.859145 0
H 4.338005 8.056295 1.859145 0
H 4.338005 9.295725000000001 0.619715 0
H 3.0985750000000003 8.056295 3.0985750000000003 0
H 3.0985750000000003 9.295725000000001 4.338005 0
H 4.338005 8.056295 4.338005 0
H 4.338005 9.295725000000001 3.0985750000000003 0
H 3.0985750000000003 8.056295 5.577435 0
H 3.0985750000000003 9.295725000000001 6.816865 0
H 4.338005 8.056295 6.816865 0
H 4.338005 9.295725000000001 5.577435 0
H 3.0985750000000003 8.056295 8.056295 0
H 3.0985750000000003 9.295725000000001 9.295725000000001 0
H 4.338005 8.056295 9.295725000000001 0
H 4.338005 9.295725000000001 8.056295 0
H 3.0985750000000003 8.056295 10.535155 0
H 3.0985750000000003 9.295725000000001 11.774585000000002 0
H 4.338005 8.056295 11.774585000000002 0
H 4.338005 9.295725000000001 10.535155 0
H 3.0985750000000003 8.056295 13.014015000000002 0
H 3.0985750000000003 9.295725000000001 14.253445000000003 0
H 4.338005 8.056295 14.253445000000003 0
H 4.338005 9.295725000000001 13.014015000000002 0
H 3.0985750000000003 8.056295 15.492875 0
H 3.0985750000000003 9.295725000000001 16.732305 0
H 4.338005 8.056295 16.732305 0
H 4.338005 9.295725000000001 15.492875 0
H 3.0985750000000003 8.056295 17.971735 0
H 3.0985750000000003 9.295725000000001 19.211165 0
H 4.338005 8.056295 19.211165 0
H 4.338005 9.295725000000001 17.971735 0
H 3.0985750000000003 8.056295 20.450595 0
H 3.0985750000000003 9.295725000000001 21.690025000000002 0
H 4.338005 8.056295 21.690025000000002 0
H 4.338005 9.295725000000001 20.450595 0
H 3.0985750000000003 10.535155 0.619715 0
H 3.0985750000000003 11.774585000000002 1.859145 0
H 4.338005 10.535155 1.859145 0
H 4.338005 11.774585000000002 0.619715 0
H 3.0985750000000003 10.535155 3.0985750000000003 0
H 3.0985750000000003 11.774585000000002 4.338005 0
H 4.338005 10.535155 4.338005 0
H 4.338005 11.774585000000002 3.0985750000000003 0
H 3.0985750000000003 10.535155 5.577435 0
H 3.0985750000000003 11.774585000000002 6.816865 0
H 4.338005 10.535155 6.816865 0
H 4.338005 11.774585000000002 5.577435 0
H 3.0985750000000003 10.535155 8.056295 0
H 3.0985750000000003 11.774585000000002 9.295725000000001 0
H 4.338005 10.535155 9.295725000000001 0
H 4.338005 11.774585000000002 8.056295 0
H 3.0985750000000003 10.535155 10.535155 0
H 3.0985750000000003 11.774585000000002 11.774585000000002 0
H 4.338005 10.535155 11.774585000000002 0
H 4.338005 11.774585000000002 10.535155 0
H 3.0985750000000003 10.535155 13.014015000000002 0
H 3.0985750000000003 11.774585000000002 14.253445000000003 0
H 4.338005 10.535155 14.253445000000003 0
H 4.338005 11.774585000000002 13.014015000000002 0
H 3.0985750000000003 10.535155 15.492875 0
H 3.0985750000000003 11.774585000000002 16.732305 0
H 4.338005 10.535155 16.732305 0
H 4.338005 11.774585000000002 15.492875 0
H 3.0985750000000003 10.535155 17.971735 0
H 3.0985750000000003 11.774585000000002 19.211165 0
H 4.338005 10.535155 19.211165 0
H 4.338005 11.774585000000002 17.971735 0
H 3.0985750000000003 10.535155 20.450595 0
H 3.0985750000000003 11.774585000000002 21.690025000000002 0
H 4.338005 10.535155 21.690025000000002 0
H 4.338005 11.774585000000002 20.450595 0
H 3.0985750000000003 13.014015000000002 0.619715 0
H 3.0985750000000003 14.253445000000003 1.859145 0
H 4.338005 13.014015000000002 1.859145 0
H 4.338005 14.253445000000003 0.619715 0
H 3.0985750000000003 13.014015000000002 3.0985750000000003 0
H 3.0985750000000003 14.253445000000003 4.338005 0
H 4.338005 13.014015000000002 4.338005 0
H 4.338005 14.253445000000003 3.0985750000000003 0
H 3.0985750000000003 13.014015000000002 5.577435 0
H 3.0985750000000003 14.253445000000003 6.816865 0
H 4.338005 13.014015000000002 6.816865 0
H 4.338005 14.253445000000003 5.577435 0
H 3.0985750000000003 13.014015000000002 8.056295 0
H 3.0985750000000003 14.253445000000003 9.295725000000001 0
H 4.338005 13.014015000000002 9.295725000000001 0
H 4.338005 14.253445000000003 8.056295 0
H 3.0985750000000003 13.014015000000002 10.535155 0
H 3.0985750000000003 14.253445000000003 11.774585000000002 0
H 4.338005 13.014015000000002 11.774585000000002 0
H 4.338005 14.253445000000003 10.535155 0
H 3.0985750000000003 13.014015000000002 13.014015000000002 0
H 3.0985750000000003 14.253445000000003 14.253445000000003 0
H 4.338005 13.014015000000002 14.253445000000003 0
H 4.338005 14.253445000000003 13.014015000000002 0
H 3.0985750000000003 13.014015000000002 15.492875 0
H 3.0985750000000003 14.253445000000003 16.732305 0
H 4.338005 13.014015000000002 16.732305 0
H 4.338005 14.253445000000003 15.492875 0
H 3.0985750000000003 13.014015000000002 17.971735 0
H 3.0985750000000003 14.253445000000003 19.211165 0
H 4.338005 13.014015000000002 19.211165 0
H 4.338005 14.253445000000003 17.971735 0
H 3.0985750000000003 13.014015000000002 20.450595 0
H 3.0985750000000003 14.253445000000003 21.690025000000002 0
H 4.338005 13.014015000000002 21.690025000000002 0
H 4.338005 14.253445000000003 20.450595 0
H 3.0985750000000003 15.492875 0.619715 0
H 3.0985750000000003 16.732305 1.859145 0
H 4.338005 15.492875 1.859145 0
H 4.338005 16.732305 0.619715 0
H 3.0985750000000003 15.492875 3.0985750000000003 0
H 3.0985750000000003 16.732305 4.338005 0
H 4.338005 15.492875 4.338005 0
H 4.338005 16.732305 3.0985750000000003 0
H 3.0985750000000003 15.492875 5.577435 0
H 3.0985750000000003 16.732305 6.816865 0
H 4.338005 15.492875 6.816865 0
H 4.338005 16.732305 5.577435 0
H 3.0985750000000003 15.492875 8.056295 0
H 3.0985750000000003 16.732305 9.295725000000001 0
H 4.338005 15.492875 9.295725000000001 0
H 4.338005 16.732305 8.056295 0
H 3.0985750000000003 15.492875 10.535155 0
H 3.0985750000000003 16.732305 11.774585000000002 0
H 4.338005 15.492875 11.774585000000002 0
H 4.338005 16.732305 10.535155 0
H 3.0985750000000003 15.492875 13.014015000000002 0
H 3.0985750000000003 16.732305 14.253445000000003 0
H 4.338005 15.492875 14.253445000000003 0
H 4.338005 16.732305 13.014015000000002 0
H 3.0985750000000003 15.492875 15.492875 0
H 3.0985750000000003 16.732305 16.732305 0
H 4.338005 15.492875 16.732305 0
H 4.338005 16.732305 15.492875 0
H 3.0985750000000003 15.492875 17.971735 0
H 3.0985750000000003 16.732305 19.211165 0
H 4.338005 15.492875 19.211165 0
H 4.338005 16.732305 17.971735 0
H 3.0985750000000003 15.492875 20.450595 0
H 3.0985750000000003 16.732305 21.690025000000002 0
H 4.338005 15.492875 21.690025000000002 0
H 4.338005 16.732305 20.450595 0
H 3.0985750000000003 17.971735 0.619715 0
H 3.0985750000000003 19.211165 1.859145 0
H 4.338005 17.971735 1.859145 0
H 4.338005 19.211165 0.619715 0
H 3.0985750000000003 17.971735 3.0985750000000003 0
H 3.0985750000000003 19.211165 4.338005 0
H 4.338005 17.971735 4.338005 0
H 4.338005 19.211165 3.0985750000000003 0
H 3.0985750000000003 17.971735 5.577435 0
H 3.0985750000000003 19.211165 6.816865 0
H 4.338005 17.971735 6.816865 0
H 4.338005 19.211165 5.577435 0
H 3.0985750000000003 17.971735 8.056295 0
H 3.0985750000000003 19.211165 9.295725000000001 0
H 4.338005 17.971735 9.295725000000001 0
H 4.338005 19.211165 8.056295 0
H 3.0985750000000003 17.971735 10.535155 0
H 3.0985750000000003 19.211165 11.774585000000002 0
H 4.338005 17.971735 11.774585000000002 0
H 4.338005 19.211165 10.535155 0
H 3.0985750000000003 17.971735 13.014015000000002 0
H 3.0985750000000003 19.211165 14.253445000000003 0
H 4.338005 17.971735 14.253445000000003 0
H 4.338005 19.211165 13.014015000000002 0
H 3.0985750000000003 17.971735 15.492875 0
H 3.0985750000000003 19.211165 16.732305 0
H 4.338005 17.971735 16.732305 0
H 4.338005 19.211165 15.492875 0
H 3.0985750000000003 17.971735 17.971735 0
H 3.0985750000000003 19.211165 19.211165 0
H 4.338005 17.971735 19.211165 0
H 4.338005 19.211165 17.971735 0
H 3.0985750000000003 17.971735 20.450595 0
H 3.0985750000000003 19.211165 21.690025000000002 0
H 4.338005 17.971735 21.690025000000002 0
H 4.338005 19.211165 20.450595 0
H 3.0985750000000003 20.450595 0.619715 0
H 3.0985750000000003 21.690025000000002 1.859145 0
H 4.338005 20.450595 1.859145 0
H 4.338005 21.690025000000002 0.619715 0
H 3.0985750000000003 20.450595 3.0985750000000003 0
H 3.0985750000000003 21.690025000000002 4.338005 0
H 4.338005 20.450595 4.338005 0
H 4.338005 21.690025000000002 3.0985750000000003 0
H 3.0985750000000003 20.450595 5.577435 0
H 3.0985750000000003 21.690025000000002 6.816865 0
H 4.338005 20.450595 6.816865 0
H 4.338005 21.690025000000002 5.577435 0
H 3.0985750000000003 20.450595 8.056295 0
H 3.0985750000000003 21.690025000000002 9.295725000000001 0
H 4.338005 20.450595 9.295725000000001 0
H 4.338005 21.690025000000002 8.056295 0
H 3.0985750000000003 20.450595 10.535155 0
H 3.0985750000000003 21.690025000000002 11.774585000000002 0
H 4.338005 20.450595 11.774585000000002 0
H 4.338005 21.690025000000002 10.535155 0
H 3.0985750000000003 20.450595 13.014015000000002 0
H 3.0985750000000003 21.690025000000002 14.253445000000003 0
H 4.338005 20.450595 14.253445000000003 0
H 4.338005 21.690025000000002 13.014015000000002 0
H 3.0985750000000003 20.450595 15.492875 0
H 3.0985750000000003 21.690025000000002 16.732305 0
H 4.338005 20.450595 16.732305 0
H 4.338005 21.690025000000002 15.492875 0
H 3.0985750000000003 20.450595 17.971735 0
H 3.0985750000000003 21.690025000000002 19.211165 0
H 4.338005 20.450595 19.211165 0
H 4.338005 21.690025000000002 17.971735 0
H 3.0985750000000003 20.450595 20.450595 0
H 3.0985750000000003 21.690025000000002 21.690025000000002 0
H 4.338005 20.450595 21.690025000000002 0
H 4.338005 21.690025000000002 20.450595 0
H 5.577435 0.619715 0.619715 0
H 5.577435 1.859145 1.859145 0
H 6.816865 0.619715 1.859145 0
H 6.816865 1.859145 0.619715 0
H 5.577435 0.619715 3.0985750000000003 0
H 5.577435 1.859145 4.338005 0
H 6.816865 0.619715 4.338005 0
H 6.816865 1.859145 3.0985750000000003 0
H 5.577435 0.619715 5.577435 0
H 5.577435 1.859145 6.816865 0
H 6.816865 0.619715 6.816865 0
H 6.816865 1.859145 5.577435 0
H 5.577435 0.619715 8.056295 0
H 5.577435 1.859145 9.295725000000001 0
H 6.816865 0.619715 9.295725000000001 0
H 6.816865 1.859145 8.056295 0
H 5.577435 0.619715 10.535155 0
H 5.577435 1.859145 11.774585000000002 0
H 6.816865 0.619715 11.774585000000002 0
H 6.816865 1.859145 10.535155 0
H 5.577435 0.619715 13.014015000000002 0
H 5.577435 1.859145 14.253445000000003 0
H 6.816865 0.619715 14.253445000000003 0
H 6.816865 1.859145 13.014015000000002 0
H 5.577435 0.619715 15.492875 0
H 5.577435 1.859145 16.732305 0
H 6.816865 0.619715 16.732305 0
H 6.816865 1.859145 15.492875 0
H 5.577435 0.619715 17.971735 0
H 5.577435 1.859145 19.211165 0
H 6.816865 0.619715 19.211165 0
H 6.816865 1.859145 17.971735 0
H 5.577435 0.619715 20.450595 0
H 5.577435 1.859145 21.690025000000002 0
H 6.816865 0.619715 21.690025000000002 0
H 6.816865 1.859145 20.450595 0
H 5.577435 3.0985750000000003 0.619715 0
H 5.577435 4.338005 1.859145 0
H 6.816865 3.0985750000000003 1.859145 0
H 6.816865 4.338005 0.619715 0
H 5.577435 3.0985750000000003 3.0985750000000003 0
H 5.577435 4.338005 4.338005 0
H 6.816865 3.0985750000000003 4.338005 0
H 6.816865 4.338005 3.0985750000000003 0
H 5.577435 3.0985750000000003 5.577435 0
H 5.577435 4.338005 6.816865 0
H 6.816865 3.0985750000000003 6.816865 0
H 6.816865 4.338005 5.577435 0
H 5.577435 3.0985750000000003 8.056295 0
H 5.577435 4.338005 9.295725000000001 0
H 6.816865 3.0985750000000003 9.295725000000001 0
H 6.816865 4.338005 8.056295 0
H 5.577435 3.0985750000000003 10.535155 0
H 5.577435 4.338005 11.774585000000002 0
H 6.816865 3.0985750000000003 11.774585000000002 0
H 6.816865 4.338005 10.535155 0
H 5.577435 3.0985750000000003 13.014015000000002 0
H 5.577435 4.338005 14.253445000000003 0
H 6.816865 3.0985750000000003 14.253445000000003 0
H 6.816865 4.338005 13.014015000000002 0
H 5.577435 3.0985750000000003 15.492875 0
H 5.577435 4.338005 16.732305 0
H 6.816865 3.0985750000000003 16.732305 0
H 6.816865 4.338005 15.492875 0
H 5.577435 3.0985750000000003 17.971735 0
H 5.577435 4.338005 19.211165 0
H 6.816865 3.0985750000000003 19.211165 0
H 6.816865 4.338005 17.971735 0
H 5.577435 3.0985750000000003 20.450595 0
H 5.577435 4.338005 21.690025000000002 0
H 6.816865 3.0985750000000003 21.690025000000002 0
H 6.816865 4.338005 20.450595 0
H 5.577435 5.577435 0.619715 0
H 5.577435 6.816865 1.859145 0
H 6.816865 5.577435 1.859145 0
H 6.816865 6.816865 0.619715 0
H 5.577435 5.577435 3.0985750000000003 0
H 5.577435 6.816865 4.338005 0
H 6.816865 5.577435 4.338005 0
H 6.816865 6.816865 3.0985750000000003 0
H 5.577435 5.577435 5.577435 0
H 5.577435 6.816865 6.816865 0
H 6.816865 5.577435 6.816865 0
H 6.816865 6.816865 5.577435 0
H 5.577435 5.577435 8.056295 0
H 5.577435 6.816865 9.295725000000001 0
H 6.816865 5.577435 9.295725000000001 0
H 6.816865 6.816865 8.056295 0
H 5.577435 5.577435 10.535155 0
H 5.577435 6.816865 11.774585000000002 0
H 6.816865 5.577435 11.774585000000002 0
H 6.816865 6.816865 10.535155 0
H 5.577435 5.577435 13.014015000000002 0
H 5.577435 6.816865 14.253445000000003 0
H 6.816865 5.577435 14.253445000000003 0
H 6.816865 6.816865 13.014015000000002 0
H 5.577435 5.577435 15.492875 0
H 5.577435 6.816865 16.732305 0
H 6.816865 5.577435 16.732305 0
H 6.816865 6.816865 15.492875 0
H 5.577435 5.577435 17.971735 0
H 5.577435 6.816865 19.211165 0
H 6.816865 5.577435 19.211165 0
H 6.816865 6.816865 17.971735 0
H 5.577435 5.577435 20.450595 0
H 5.577435 6.816865 21.690025000000002 0
H 6.816865 5.577435 21.690025000000002 0
H 6.816865 6.816865 20.450595 0
H 5.577435 8.056295 0.619715 0
H 5.577435 9.295725000000001 1.859145 0
H 6.816865 8.056295 1.859145 0
H 6.816865 9.295725000000001 0.619715 0
H 5.577435 8.056295 3.0985750000000003 0
H 5.577435 9.295725000000001 4.338005 0
H 6.816865 8.056295 4.338005 0
H 6.816865 9.295725000000001 3.0985750000000003 0
H 5.577435 8.056295 5.577435 0
H 5.577435 9.295725000000001 6.816865 0
H 6.816865 8.056295 6.816865 0
H 6.816865 9.295725000000001 5.577435 0
H 5.577435 8.056295 8.056295 0
H 5.577435 9.295725000000001 9.295725000000001 0
H 6.816865 8.056295 9.295725000000001 0
H 6.816865 9.295725000000001 8.056295 0
H 5.577435 8.056295 10.535155 0
H 5.577435 9.295725000000001 11.774585000000002 0
H 6.816865 8.056295 11.774585000000002 0
H 6.816865 9.295725000000001 10.535155 0
H 5.577435 8.056295 13.014015000000002 0
H 5.577435 9.295725000000001 14.253445000000003 0
H 6.816865 8.056295 14.253445000000003 0
H 6.816865 9.295725000000001 13.014015000000002 0
H 5.577435 8.056295 15.492875 0
H 5.577435 9.295725000000001 16.732305 0
H 6.816865 8.056295 16.732305 0
H 6.816865 9.295725000000001 15.492875 0
H 5.577435 8.056295 17.971735 0
H 5.577435 9.295725000000001 19.211165 0
H 6.816865 8.056295 19.211165 0
H 6.816865 9.295725000000001 17.971735 0
H 5.577435 8.056295 20.450595 0
H 5.577435 9.295725000000001 21.690025000000002 0
H 6.816865 8.056295 21.690025000000002 0
H 6.816865 9.295725000000001 20.450595 0
H 5.577435 10.535155 0.619715 0
H 5.577435 11.774585000000002 1.859145 0
H 6.816865 10.535155 1.859145 0
H 6.816865 11.774585000000002 0.619715 0
H 5.577435 10.535155 3.0985750000000003 0
H 5.577435 11.774585000000002 4.338005 0
H 6.816865 10.535155 4.338005 0
H 6.816865 11.774585000000002 3.0985750000000003 0
H 5.577435 10.535155 5.577435 0
H 5.577435 11.774585000000002 6.816865 0
H 6.816865 10.535155 6.816865 0
H 6.816865 11.774585000000002 5.577435 0
H 5.577435 10.535155 8.056295 0
H 5.577435 11.774585000000002 9.295725000000001 0
H 6.816865 10.535155 9.295725000000001 0
H 6.816865 11.774585000000002 8.056295 0
H 5.577435 10.535155 10.535155 0
H 5.577435 11.774585000000002 11.774585000000002 0
H 6.816865 10.535155 11.774585000000002 0
H 6.816865 11.774585000000002 10.535155 0
H 5.577435 10.535155 13.014015000000002 0
H 5.577435 11.774585000000002 14.253445000000003 0
H 6.816865 10.535155 14.253445000000003 0
H 6.816865 11.774585000000002 13.014015000000002 0
H 5.577435 10.535155 15.492875 0
H 5.577435 11.774585000000002 16.732305 0
H 6.816865 10.535155 16.732305 0
H 6.816865 11.774585000000002 15.492875 0
H 5.577435 10.535155 17.971735 0
H 5.577435 11.774585000000002 19.211165 0
H 6.816865 10.535155 19.211165 0
H 6.816865 11.774585000000002 17.971735 0
H 5.577435 10.535155 20.450595 0
H 5.577435 11.774585000000002 21.690025000000002 0
H 6.816865 10.535155 21.690025000000002 0
H 6.816865 11.774585000000002 20.450595 0
H 5.577435 13.014015000000002 0.619715 0
H 5.577435 14.253445000000003 1.859145 0
H 6.816865 13.014015000000002 1.859145 0
H 6.816865 14.253445000000003 0.619715 0
H 5.577435 13.014015000000002 3.0985750000000003 0
H 5.577435 14.253445000000003 4.338005 0
H 6.816865 13.014015000000002 4.338005 0
H 6.816865 14.253445000000003 3.0985750000000003 0
H 5.577435 13.014015000000002 5.577435 0
H 5.577435 14.253445000000003 6.816865 0
H 6.816865 13.014015000000002 6.816865 0
H 6.816865 14.253445000000003 5.577435 0
H 5.577435 13.014015000000002 8.056295 0
H 5.577435 14.253445000000003 9.295725000000001 0
H 6.816865 13.014015000000002 9.295725000000001 0
H 6.816865 14.253445000000003 8.056295 0
H 5.577435 13.014015000000002 10.535155 0
H 5.577435 14.253445000000003 11.774585000000002 0
H 6.816865 13.014015000000002 11.774585000000002 0
H 6.816865 14.253445000000003 10.535155 0
H 5.577435 13.014015000000002 13.014015000000002 0
H 5.577435 14.253445000000003 14.253445000000003 0
H 6.816865 13.014015000000002 14.253445000000003 0
H 6.816865 14.253445000000003 13.014015000000002 0
H 5.577435 13.014015000000002 15.492875 0
H 5.577435 14.253445000000003 16.732305 0
H 6.816865 13.014015000000002 16.732305 0
H 6.816865 14.253445000000003 15.492875 0
H 5.577435 13.014015000000002 17.971735 0
H 5.577435 14.253445000000003 19.211165 0
H 6.816865 13.014015000000002 19.211165 0
H 6.816865 14.253445000000003 17.971735 0
H 5.577435 13.014015000000002 20.450595 0
H 5.577435 14.253445000000003 21.690025000000002 0
H 6.816865 13.014015000000002 21.690025000000002 0
H 6.816865 14.253445000000003 20.450595 0
H 5.577435 15.492875 0.619715 0
H 5.577435 16.732305 1.859145 0
H 6.816865 15.492875 1.859145 0
H 6.816865 16.732305 0.619715 0
H 5.577435 15.492875 3.0985750000000003 0
H 5.577435 16.732305 4.338005 0
H 6.816865 15.492875 4.338005 0
H 6.816865 16.732305 3.0985750000000003 0
H 5.577435 15.492875 5.577435 0
H 5.577435 16.732305 6.816865 0
H 6.816865 15.492875 6.816865 0
H 6.816865 16.732305 5.577435 0
H 5.577435 15.492875 8.056295 0
H 5.577435 16.732305 9.295725000000001 0
H 6.816865 15.492875 9.295725000000001 0
H 6.816865 16.732305 8.056295 0
H 5.577435 15.492875 10.535155 0
H 5.577435 16.732305 11.774585000000002 0
H 6.816865 15.492875 11.774585000000002 0
H 6.816865 16.732305 10.535155 0
H 5.577435 15.492875 13.014015000000002 0
H 5.577435 16.732305 14.253445000000003 0
H 6.816865 15.492875 14.253445000000003 0
H 6.816865 16.732305 13.014015000000002 0
H 5.577435 15.492875 15.492875 0
H 5.577435 16.732305 16.732305 0
H 6.816865 15.492875 16.732305 0
H 6.816865 16.732305 15.492875 0
H 5.577435 15.492875 17.971735 0
H 5.577435 16.732305 19.211165 0
H 6.816865 15.492875 19.211165 0
H 6.816865 16.732305 17.971735 0
H 5.577435 15.492875 20.450595 0
H 5.577435 16.732305 21.690025000000002 0
H 6.816865 15.492875 21.690025000000002 0
H 6.816865 16.732305 20.450595 0
H 5.577435 17.971735 0.619715 0
H 5.577435 19.211165 1.859145 0
H 6.816865 17.971735 1.859145 0
H 6.816865 19.211165 0.619715 0
H 5.577435 17.971735 3.0985750000000003 0
H 5.577435 19.211165 4.338005 0
H 6.816865 17.971735 4.338005 0
H 6.816865 19.211165 3.0985750000000003 0
H 5.577435 17.971735 5.577435 0
H 5.577435 19.211165 6.816865 0
H 6.816865 17.971735 6.816865 0
H 6.816865 19.211165 5.577435 0
H 5.577435 17.971735 8.056295 0
H 5.577435 19.211165 9.295725000000001 0
H 6.816865 17.971735 9.295725000000001 0
H 6.816865 19.211165 8.056295 0
H 5.577435 17.971735 10.535155 0
H 5.577435 19.211165 11.774585000000002 0
H 6.816865 17.971735 11.774585000000002 0
H 6.816865 19.211165 10.535155 0
H 5.577435 17.971735 13.014015000000002 0
H 5.577435 19.211165 14.253445000000003 0
H 6.816865 17.971735 14.253445000000003 0
H 6.816865 19.211165 13.014015000000002 0
H 5.577435 17.971735 15.492875 0
H 5.577435 19.211165 16.732305 0
H 6.816865 17.971735 16.732305 0
H 6.816865 19.211165 15.492875 0
H 5.577435 17.971735 17.971735 0
H 5.577435 19.211165 19.211165 0
H 6.816865 17.971735 19.211165 0
H 6.816865 19.211165 17.971735 0
H 5.577435 17.971735 20.450595 0
H 5.577435 19.211165 21.690025000000002 0
H 6.816865 17.971735 21.690025000000002 0
H 6.816865 19.211165 20.450595 0
H 5.577435 20.450595 0.619715 0
H 5.577435 21.690025000000002 1.859145 0
H 6.816865 20.450595 1.859145 0
H 6.816865 21.690025000000002 0.619715 0
H 5.577435 20.450595 3.0985750000000003 0
H 5.577435 21.690025000000002 4.338005 0
H 6.816865 20.450595 4.338005 0
H 6.816865 21.690025000000002 3.0985750000000003 0
H 5.577435 20.450595 5.577435 0
H 5.577435 21.690025000000002 6.816865 0
H 6.816865 20.450595 6.816865 0
H 6.816865 21.690025000000002 5.577435 0
H 5.577435 20.450595 8.056295 0
H 5.577435 21.690025000000002 9.295725000000001 0
H 6.816865 20.450595 9.295725000000001 0
H 6.816865 21.690025000000002 8.056295 0
H 5.577435 20.450595 10.535155 0
H 5.577435 21.690025000000002 11.774585000000002 0
H 6.816865 20.450595 11.774585000000002 0
H 6.816865 21.690025000000002 10.535155 0
H 5.577435 20.450595 13.014015000000002 0
H 5.577435 21.690025000000002 14.253445000000003 0
H 6.816865 20.450595 14.253445000000003 0
H 6.816865 21.690025000000002 13.014015000000002 0
H 5.577435 20.450595 15.492875 0
H 5.577435 21.690025000000002 16.732305 0
H 6.816865 20.450595 16.732305 0
H 6.816865 21.690025000000002 15.492875 0
H 5.577435 20.450595 17.971735 0
H 5.577435 21.690025000000002 19.211165 0
H 6.816865 20.450595 19.211165 0
H 6.816865 21.690025000000002 17.971735 0
H 5.577435 20.450595 20.450595 0
H 5.577435 21.690025000000002 21.690025000000002 0
H 6.816865 20.450595 21.690025000000002 0
H 6.816865 21.690025000000002 20.450595 0
H 8.056295 0.619715 0.619715 0
H 8.056295 1.859145 1.859145 0
H 9.295725000000001 0.619715 1.859145 0
H 9.295725000000001 1.859145 0.619715 0
H 8.056295 0.619715 3.0985750000000003 0
H 8.056295 1.859145 4.338005 0
H 9.295725000000001 0.619715 4.338005 0
H 9.295725000000001 1.859145 3.0985750000000003 0
H 8.056295 0.619715 5.577435 0
H 8.056295 1.859145 6.816865 0
H 9.295725000000001 0.619715 6.816865 0
H 9.295725000000001 1.859145 5.577435 0
H 8.056295 0.619715 8.056295 0
H 8.056295 1.859145 9.295725000000001 0
H 9.295725000000001 0.619715 9.295725000000001 0
H 9.295725000000001 1.859145 8.056295 0
H 8.056295 0.619715 10.535155 0
H 8.056295 1.859145 11.774585000000002 0
H 9.295725000000001 0.619715 11.774585000000002 0
H 9.295725000000001 1.859145 10.535155 0
H 8.056295 0.619715 13.014015000000002 0
H 8.056295 1.859145 14.253445000000003 0
H 9.295725000000001 0.619715 14.253445000000003 0
H 9.295725000000001 1.859145 13.014015000000002 0
H 8.056295 0.619715 15.492875 0
H 8.056295 1.859145 16.732305 0
H 9.295725000000001 0.619715 16.732305 0
H 9.295725000000001 1.859145 15.492875 0
H 8.056295 0.619715 17.971735 0
H 8.056295 1.859145 19.211165 0
H 9.295725000000001 0.619715 19.211165 0
H 9.295725000000001 1.859145 17.971735 0
H 8.056295 0.619715 20.450595 0
H 8.056295 1.859145 21.690025000000002 0
H 9.295725000000001 0.619715 21.690025000000002 0
H 9.295725000000001 1.859145 20.450595 0
H 8.056295 3.0985750000000003 0.619715 0
H 8.056295 4.338005 1.859145 0
H 9.295725000000001 3.0985750000000003 1.859145 0
H 9.295725000000001 4.338005 0.619715 0
H 8.056295 3.0985750000000003 3.0985750000000003 0
H 8.056295 4.338005 4.338005 0
H 9.295725000000001 3.0985750000000003 4.338005 0
H 9.295725000000001 4.338005 3.0985750000000003 0
H 8.056295 3.0985750000000003 5.577435 0
H 8.056295 4.338005 6.816865 0
H 9.295725000000001 3.0985750000000003 6.816865 0
H 9.295725000000001 4.338005 5.577435 0
H 8.056295 3.0985750000000003 8.056295 0
H 8.056295 4.338005 9.295725000000001 0
H 9.295725000000001 3.0985750000000003 9.295725000000001 0
H 9.295725000000001 4.338005 8.056295 0
H 8.056295 3.0985750000000003 10.535155 0
H 8.056295 4.338005 11.774585000000002 0
H 9.295725000000001 3.0985750000000003 11.774585000000002 0
H 9.295725000000001 4.338005 10.535155 0
H 8.056295 3.0985750000000003 13.014015000000002 0
H 8.056295 4.338005 14.253445000000003 0
H 9.295725000000001 3.0985750000000003 14.253445000000003 0
H 9.295725000000001 4.338005 13.014015000000002 0
H 8.056295 3.0985750000000003 15.492875 0
H 8.056295 4.338005 16.732305 0
H 9.295725000000001 3.0985750000000003 16.732305 0
H 9.295725000000001 4.338005 15.492875 0
H 8.056295 3.0985750000000003 17.971735 0
H 8.056295 4.338005 19.211165 0
H 9.295725000000001 3.0985750000000003 19.211165 0
H 9.295725000000001 4.338005 17.971735 0
H 8.056295 3.0985750000000003 20.450595 0
H 8.056295 4.338005 21.690025000000002 0
H 9.295725000000001 3.0985750000000003 21.690025000000002 0
H 9.295725000000001 4.338005 20.450595 0
H 8.056295 5.577435 0.619715 0
H 8.056295 6.816865 1.859145 0
H 9.295725000000001 5.577435 1.859145 0
H 9.295725000000001 6.816865 0.619715 0
H 8.056295 5.577435 3.0985750000000003 0
H 8.056295 6.816865 4.338005 0
H 9.295725000000001 5.577435 4.338005 0
H 9.295725000000001 6.816865 3.0985750000000003 0
H 8.056295 5.577435 5.577435 0
H 8.056295 6.816865 6.816865 0
H 9.295725000000001 5.577435 6.816865 0
H 9.295725000000001 6.816865 5.577435 0
H 8.056295 5.577435 8.056295 0
H 8.056295 6.816865 9.295725000000001 0
H 9.295725000000001 5.577435 9.295725000000001 0
H 9.295725000000001 6.816865 8.056295 0
H 8.056295 5.577435 10.535155 0
H 8.056295 6.816865 11.774585000000002 0
H 9.295725000000001 5.577435 11.774585000000002 0
H 9.295725000000001 6.816865 10.535155 0
H 8.056295 5.577435 13.014015000000002 0
H 8.056295 6.816865 14.253445000000003 0
H 9.295725000000001 5.577435 14.253445000000003 0
H 9.295725000000001 6.816865 13.014015000000002 0
H 8.056295 5.577435 15.492875 0
H 8.056295 6.816865 16.732305 0
H 9.295725000000001 5.577435 16.732305 0
H 9.295725000000001 6.816865 15.492875 0
H 8.056295 5.577435 17.971735 0
H 8.056295 6.816865 19.211165 0
H 9.295725000000001 5.577435 19.211165 0
H 9.295725000000001 6.816865 17.971735 0
H 8.056295 5.577435 20.450595 0
H 8.056295 6.816865 21.690025000000002 0
H 9.295725000000001 5.577435 21.690025000000002 0
H 9.295725000000001 6.816865 20.450595 0
H 8.056295 8.056295 0.619715 0
H 8.056295 9.295725000000001 1.859145 0
H 9.295725000000001 8.056295 1.859145 0
H 9.295725000000001 9.295725000000001 0.619715 0
H 8.056295 8.056295 3.0985750000000003 0
H 8.056295 9.295725000000001 4.338005 0
H 9.295725000000001 8.056295 4.338005 0
H 9.295725000000001 9.295725000000001 3.0985750000000003 0
H 8.056295 8.056295 5.577435 0
H 8.056295 9.295725000000001 6.816865 0
H 9.295725000000001 8.056295 6.816865 0
H 9.295725000000001 9.295725000000001 5.577435 0
H 8.056295 8.056295 8.056295 0
H 8.056295 9.295725000000001 9.295725000000001 0
H 9.295725000000001 8.056295 9.295725000000001 0
H 9.295725000000001 9.295725000000001 8.056295 0
H 8.056295 8.056295 10.535155 0
H 8.056295 9.295725000000001 11.774585000000002 0
H 9.295725000000001 8.056295 11.774585000000002 0
H 9.295725000000001 9.295725000000001 10.535155 0
H 8.056295 8.056295 13.014015000000002 0
H 8.056295 9.295725000000001 14.253445000000003 0
H 9.295725000000001 8.056295 14.253445000000003 0
H 9.295725000000001 9.295725000000001 13.014015000000002 0
H 8.056295 8.056295 15.492875 0
H 8.056295 9.295725000000001 16.732305 0
H 9.295725000000001 8.056295 16.732305 0
H 9.295725000000001 9.295725000000001 15.492875 0
H 8.056295 8.056295 17.971735 0
H 8.056295 9.295725000000001 19.211165 0
H 9.295725000000001 8.056295 19.211165 0
H 9.295725000000001 9.295725000000001 17.971735 0
H 8.056295 8.056295 20.450595 0
H 8.056295 9.295725000000001 21.690025000000002 0
H 9.295725000000001 8.056295 21.690025000000002 0
H 9.295725000000001 9.295725000000001 20.450595 0
H 8.056295 10.535155 0.619715 0
H 8.056295 11.774585000000002 1.859145 0
H 9.295725000000001 10.535155 1.859145 0
H 9.295725000000001 11.774585000000002 0.619715 0
H 8.056295 10.535155 3.0985750000000003 0
H 8.056295 11.774585000000002 4.338005 0
H 9.295725000000001 10.535155 4.338005 0
H 9.295725000000001 11.774585000000002 3.0985750000000003 0
H 8.056295 10.535155 5.577435 0
H 8.056295 11.774585000000002 6.816865 0
H 9.295725000000001 10.535155 6.816865 0
H 9.295725000000001 11.774585000000002 5.577435 0
H 8.056295 10.535155 8.056295 0
H 8.056295 11.774585000000002 9.295725000000001 0
H 9.295725000000001 10.535155 9.295725000000001 0
H 9.295725000000001 11.774585000000002 8.056295 0
H 8.056295 10.535155 10.535155 0
H 8.056295 11.774585000000002 11.774585000000002 0
H 9.295725000000001 10.535155 11.774585000000002 0
H 9.295725000000001 11.774585000000002 10.535155 0
H 8.056295 10.535155 13.014015000000002 0
H 8.056295 11.774585000000002 14.253445000000003 0
H 9.295725000000001 10.535155 14.253445000000003 0
H 9.295725000000001 11.774585000000002 13.014015000000002 0
H 8.056295 10.535155 15.492875 0
H 8.056295 11.774585000000002 16.732305 0
H 9.295725000000001 10.535155 16.732305 0
H 9.295725000000001 11.774585000000002 15.492875 0
H 8.056295 10.535155 17.971735 0
H 8.056295 11.774585000000002 19.211165 0
H 9.295725000000001 10.535155 19.211165 0
H 9.295725000000001 11.774585000000002 17.971735 0
H 8.056295 10.535155 20.450595 0
H 8.056295 11.774585000000002 21.690025000000002 0
H 9.295725000000001 10.535155 21.690025000000002 0
H 9.295725000000001 11.774585000000002 20.450595 0
H 8.056295 13.014015000000002 0.619715 0
H 8.056295 14.253445000000003 1.859145 0
H 9.295725000000001 13.014015000000002 1.859145 0
H 9.295725000000001 14.253445000000003 0.619715 0
H 8.056295 13.014015000000002 3.0985750000000003 0
H 8.056295 14.253445000000003 4.338005 0
H 9.295725000000001 13.014015000000002 4.338005 0
H 9.295725000000001 14.253445000000003 3.0985750000000003 0
H 8.056295 13.014015000000002 5.577435 0
H 8.056295 14.253445000000003 6.816865 0
H 9.295725000000001 13.014015000000002 6.816865 0
H 9.295725000000001 14.253445000000003 5.577435 0
H 8.056295 13.014015000000002 8.056295 0
H 8.056295 14.253445000000003 9.295725000000001 0
H 9.295725000000001 13.014015000000002 9.295725000000001 0
H 9.295725000000001 14.253445000000003 8.056295 0
H 8.056295 13.014015000000002 10.535155 0
H 8.056295 14.253445000000003 11.774585000000002 0
H 9.295725000000001 13.014015000000002 11.774585000000002 0
H 9.295725000000001 14.253445000000003 10.535155 0
H 8.056295 13.014015000000002 13.014015000000002 0
H 8.056295 14.253445000000003 14.253445000000003 0
H 9.295725000000001 13.014015000000002 14.253445000000003 0
H 9.295725000000001 14.253445000000003 13.014015000000002 0
H 8.056295 13.014015000000002 15.492875 0
H 8.056295 14.253445000000003 16.732305 0
H 9.295725000000001 13.014015000000002 16.732305 0
H 9.295725000000001 14.253445000000003 15.492875 0
H 8.056295 13.014015000000002 17.971735 0
H 8.056295 14.253445000000003 19.211165 0
H 9.295725000000001 13.014015000000002 19.211165 0
H 9.295725000000001 14.253445000000003 17.971735 0
H 8.056295 13.014015000000002 20.450595 0
H 8.056295 14.253445000000003 21.690025000000002 0
H 9.295725000000001 13.014015000000002 21.690025000000002 0
H 9.295725000000001 14.253445000000003 20.450595 0
H 8.056295 15.492875 0.619715 0
H 8.056295 16.732305 1.859145 0
H 9.295725000000001 15.492875 1.859145 0
H 9.295725000000001 16.732305 0.619715 0
H 8.056295 15.492875 3.0985750000000003 0
H 8.056295 16.732305 4.338005 0
H 9.295725000000001 15.492875 4.338005 0
H 9.295725000000001 16.732305 3.0985750000000003 0
H 8.056295 15.492875 5.577435 0
H 8.056295 16.732305 6.816865 0
H 9.295725000000001 15.492875 6.816865 0
H 9.295725000000001 16.732305 5.577435 0
H 8.056295 15.492875 8.056295 0
H 8.056295 16.732305 9.295725000000001 0
H 9.295725000000001 15.492875 9.295725000000001 0
H 9.295725000000001 16.732305 8.056295 0
H 8.056295 15.492875 10.535155 0
H 8.056295 16.732305 11.774585000000002 0
H 9.295725000000001 15.492875 11.774585000000002 0
H 9.295725000000001 16.732305 10.535155 0
H 8.056295 15.492875 13.014015000000002 0
H 8.056295 16.732305 14.253445000000003 0
H 9.295725000000001 15.492875 14.253445000000003 0
H 9.295725000000001 16.732305 13.014015000000002 0
H 8.056295 15.492875 15.492875 0
H 8.056295 16.732305 16.732305 0
H 9.295725000000001 15.492875 16.732305 0
H 9.295725000000001 16.732305 15.492875 0
H 8.056295 15.492875 17.971735 0
H 8.056295 16.732305 19.211165 0
H 9.295725000000001 15.492875 19.211165 0
H 9.295725000000001 16.732305 17.971735 0
H 8.056295 15.492875 20.450595 0
H 8.056295 16.732305 21.690025000000002 0
H 9.295725000000001 15.492875 21.690025000000002 0
H 9.295725000000001 16.732305 20.450595 0
H 8.056295 17.971735 0.619715 0
H 8.056295 19.211165 1.859145 0
H 9.295725000000001 17.971735 1.859145 0
H 9.295725000000001 19.211165 0.619715 0
H 8.056295 17.971735 3.0985750000000003 0
H 8.056295 19.211165 4.338005 0
H 9.295725000000001 17.971735 4.338005 0
H 9.295725000000001 19.211165 3.0985750000000003 0
H 8.056295 17.971735 5.577435 0
H 8.056295 19.211165 6.816865 0
H 9.295725000000001 17.971735 6.816865 0
H 9.295725000000001 19.211165 5.577435 0
H 8.056295 17.971735 8.056295 0
H 8.056295 19.211165 9.295725000000001 0
H 9.295725000000001 17.971735 9.295725000000001 0
H 9.295725000000001 19.211165 8.056295 0
H 8.056295 17.971735 10.535155 0
H 8.056295 19.211165 11.774585000000002 0
H 9.295725000000001 17.971735 11.774585000000002 0
H 9.295725000000001 19.211165 10.535155 0
H 8.056295 17.971735 13.014015000000002 0
H 8.056295 19.211165 14.253445000000003 0
H 9.295725000000001 17.971735 14.253445000000003 0
H 9.295725000000001 19.211165 13.014015000000002 0
H 8.056295 17.971735 15.492875 0
H 8.056295 19.211165 16.732305 0
H 9.295725000000001 17.971735 16.732305 0
H 9.295725000000001 19.211165 15.492875 0
H 8.056295 17.971735 17.971735 0
H 8.056295 19.211165 19.211165 0
H 9.295725000000001 17.971735 19.211165 0
H 9.295725000000001 19.211165 17.971735 0
H 8.056295 17.971735 20.450595 0
H 8.056295 19.211165 21.690025000000002 0
H 9.295725000000001 17.971735 21.690025000000002 0
H 9.295725000000001 19.211165 20.450595 0
H 8.056295 20.450595 0.619715 0
H 8.056295 21.690025000000002 1.859145 0
H 9.295725000000001 20.450595 1.859145 0
H 9.295725000000001 21.690025000000002 0.619715 0
H 8.056295 20.450595 3.0985750000000003 0
H 8.056295 21.690025000000002 4.338005 0
H 9.295725000000001 20.450595 4.338005 0
H 9.295725000000001 21.690025000000002 3.0985750000000003 0
H 8.056295 20.450595 5.577435 0
H 8.056295 21.690025000000002 6.816865 0
H 9.295725000000001 20.450595 6.816865 0
H 9.295725000000001 21.690025000000002 5.577435 0
H 8.056295 20.450595 8.056295 0
H 8.056295 21.690025000000002 9.295725000000001 0
H 9.295725000000001 20.450595 9.295725000000001 0
H 9.295725000000001 21.690025000000002 8.056295 0
H 8.056295 20.450595 10.535155 0
H 8.056295 21.690025000000002 11.774585000000002 0
H 9.295725000000001 20.450595 11.774585000000002 0
H 9.295725000000001 21.690025000000002 10.535155 0
H 8.056295 20.450595 13.014015000000002 0
H 8.056295 21.690025000000002 14.253445000000003 0
H 9.295725000000001 20.450595 14.253445000000003 0
H 9.295725000000001 21.690025000000002 13.014015000000002 0
H 8.056295 20.450595 15.492875 0
H 8.056295 21.690025000000002 16.732305 0
H 9.295725000000001 20.450595 16.732305 0
H 9.295725000000001 21.690025000000002 15.492875 0
H 8.056295 20.450595 17.971735 0
H 8.056295 21.690025000000002 19.211165 0
H 9.295725000000001 20.450595 19.211165 0
H 9.295725000000001 21.690025000000002 17.971735 0
H 8.056295 20.450595 20.450595 0
H 8.056295 21.690025000000002 21.690025000000002 0
H 9.295725000000001 20.450595 21.690025000000002 0
H 9.295725000000001 21.690025000000002 20.450595 0
H 10.535155 0.619715 0.619715 0
H 10.535155 1.859145 1.859145 0
H 11.774585000000002 0.619715 1.859145 0
H 11.774585000000002 1.859145 0.619715 0
H 10.535155 0.619715 3.0985750000000003 0
H 10.535155 1.859145 4.338005 0
H 11.774585000000002 0.619715 4.338005 0
H 11.774585000000002 1.859145 3.0985750000000003 0
H 10.535155 0.619715 5.577435 0
H 10.535155 1.859145 6.816865 0
H 11.774585000000002 0.619715 6.816865 0
H 11.774585000000002 1.859145 5.577435 0
H 10.535155 0.619715 8.056295 0
H 10.535155 1.859145 9.295725000000001 0
H 11.774585000000002 0.619715 9.295725000000001 0
H 11.774585000000002 1.859145 8.056295 0
H 10.535155 0.619715 10.535155 0
H 10.535155 1.859145 11.774585000000002 0
H 11.774585000000002 0.619715 11.774585000000002 0
H 11.774585000000002 1.859145 10.535155 0
H 10.535155 0.619715 13.014015000000002 0
H 10.535155 1.859145 14.253445000000003 0
H 11.774585000000002 0.619715 14.253445000000003 0
H 11.774585000000002 1.859145 13.014015000000002 0
H 10.535155 0.619715 15.492875 0
H 10.535155 1.859145 16.732305 0
H 11.774585000000002 0.619715 16.732305 0
H 11.774585000000002 1.859145 15.492875 0
H 10.535155 0.619715 17.971735 0
H 10.535155 1.859145 19.211165 0
H 11.774585000000002 0.619715 19.211165 0
H 11.774585000000002 1.859145 17.971735 0
H 10.535155 0.619715 20.450595 0
H 10.535155 1.859145 21.690025000000002 0
H 11.774585000000002 0.619715 21.690025000000002 0
H 11.774585000000002 1.859145 20.450595 0
H 10.535155 3.0985750000000003 0.619715 0
H 10.535155 4.338005 1.859145 0
H 11.774585000000002 3.0985750000000003 1.859145 0
H 11.774585000000002 4.338005 0.619715 0
H 10.535155 3.0985750000000003 3.0985750000000003 0
H 10.535155 4.338005 4.338005 0
H 11.774585000000002 3.0985750000000003 4.338005 0
H 11.774585000000002 4.338005 3.0985750000000003 0
H 10.535155 3.0985750000000003 5.577435 0
H 10.535155 4.338005 6.816865 0
H 11.774585000000002 3.0985750000000003 6.816865 0
H 11.774585000000002 4.338005 5.577435 0
H 10.535155 3.0985750000000003 8.056295 0
H 10.535155 4.338005 9.295725000000001 0
H 11.774585000000002 3.0985750000000003 9.295725000000001 0
H 11.774585000000002 4.338005 8.056295 0
H 10.535155 3.0985750000000003 10.535155 0
H 10.535155 4.338005 11.774585000000002 0
H 11.774585000000002 3.0985750000000003 11.774585000000002 0
H 11.774585000000002 4.338005 10.535155 0
H 10.535155 3.0985750000000003 13.014015000000002 0
H 10.535155 4.338005 14.253445000000003 0
H 11.774585000000002 3.0985750000000003 14.253445000000003 0
H 11.774585000000002 4.338005 13.014015000000002 0
H 10.535155 3.0985750000000003 15.492875 0
H 10.535155 4.338005 16.732305 0
H 11.774585000000002 3.0985750000000003 16.732305 0
H 11.774585000000002 4.338005 15.492875 0
H 10.535155 3.0985750000000003 17.971735 0
H 10.535155 4.338005 19.211165 0
H 11.774585000000002 3.0985750000000003 19.211165 0
H 11.774585000000002 4.338005 17.971735 0
H 10.535155 3.0985750000000003 20.450595 0
H 10.535155 4.338005 21.690025000000002 0
H 11.774585000000002 3.0985750000000003 21.690025000000002 0
H 11.774585000000002 4.338005 20.450595 0
H 10.535155 5.577435 0.619715 0
H 10.535155 6.816865 1.859145 0
H 11.774585000000002 5.577435 1.859145 0
H 11.774585000000002 6.816865 0.619715 0
H 10.535155 5.577435 3.0985750000000003 0
H 10.535155 6.816865 4.338005 0
H 11.774585000000002 5.577435 4.338005 0
H 11.774585000000002 6.816865 3.0985750000000003 0
H 10.535155 5.577435 5.577435 0
H 10.535155 6.816865 6.816865 0
H 11.774585000000002 5.577435 6.816865 0
H 11.774585000000002 6.816865 5.577435 0
H 10.535155 5.577435 8.056295 0
H 10.535155 6.816865 9.295725000000001 0
H 11.774585000000002 5.577435 9.295725000000001 0
H 11.774585000000002 6.816865 8.056295 0
H 10.535155 5.577435 10.535155 0
H 10.535155 6.816865 11.774585000000002 0
H 11.774585000000002 5.577435 11.774585000000002 0
H 11.774585000000002 6.816865 10.535155 0
H 10.535155 5.577435 13.014015000000002 0
H 10.535155 6.816865 14.253445000000003 0
H 11.774585000000002 5.577435 14.253445000000003 0
H 11.774585000000002 6.816865 13.014015000000002 0
H 10.535155 5.577435 15.492875 0
H 10.535155 6.816865 16.732305 0
H 11.774585000000002 5.577435 16.732305 0
H 11.774585000000002 6.816865 15.492875 0
H 10.535155 5.577435 17.971735 0
H 10.535155 6.816865 19.211165 0
H 11.774585000000002 5.577435 19.211165 0
H 11.774585000000002 6.816865 17.971735 0
H 10.535155 5.577435 20.450595 0
H 10.535155 6.816865 21.690025000000002 0
H 11.774585000000002 5.577435 21.690025000000002 0
H 11.774585000000002 6.816865 20.450595 0
H 10.535155 8.056295 0.619715 0
H 10.535155 9.295725000000001 1.859145 0
H 11.774585000000002 8.056295 1.859145 0
H 11.774585000000002 9.295725000000001 0.619715 0
H 10.535155 8.056295 3.0985750000000003 0
H 10.535155 9.295725000000001 4.338005 0
H 11.774585000000002 8.056295 4.338005 0
H 11.774585000000002 9.295725000000001 3.0985750000000003 0
H 10.535155 8.056295 5.577435 0
H 10.535155 9.295725000000001 6.816865 0
H 11.774585000000002 8.056295 6.816865 0
H 11.774585000000002 9.295725000000001 5.577435 0
H 10.535155 8.056295 8.056295 0
H 10.535155 9.295725000000001 9.295725000000001 0
H 11.774585000000002 8.056295 9.295725000000001 0
H 11.774585000000002 9.295725000000001 8.056295 0
H 10.535155 8.056295 10.535155 0
H 10.535155 9.295725000000001 11.774585000000002 0
H 11.774585000000002 8.056295 11.774585000000002 0
H 11.774585000000002 9.295725000000001 10.535155 0
H 10.535155 8.056295 13.014015000000002 0
H 10.535155 9.295725000000001 14.253445000000003 0
H 11.774585000000002 8.056295 14.253445000000003 0
H 11.774585000000002 9.295725000000001 13.014015000000002 0
H 10.535155 8.056295 15.492875 0
H 10.535155 9.295725000000001 16.732305 0
H 11.774585000000002 8.056295 16.732305 0
H 11.774585000000002 9.295725000000001 15.492875 0
H 10.535155 8.056295 17.971735 0
H 10.535155 9.295725000000001 19.211165 0
H 11.774585000000002 8.056295 19.211165 0
H 11.774585000000002 9.295725000000001 17.971735 0
H 10.535155 8.056295 20.450595 0
H 10.535155 9.295725000000001 21.690025000000002 0
H 11.774585000000002 8.056295 21.690025000000002 0
H 11.774585000000002 9.295725000000001 20.450595 0
H 10.535155 10.535155 0.619715 0
H 10.535155 11.774585000000002 1.859145 0
H 11.774585000000002 10.535155 1.859145 0
H 11.774585000000002 11.774585000000002 0.619715 0
H 10.535155 10.535155 3.0985750000000003 0
H 10.535155 11.774585000000002 4.338005 0
H 11.774585000000002 10.535155 4.338005 0
H 11.774585000000002 11.774585000000002 3.0985750000000003 0
H 10.535155 10.535155 5.577435 0
H 10.535155 11.774585000000002 6.816865 0
H 11.774585000000002 10.535155 6.816865 0
H 11.774585000000002 11.774585000000002 5.577435 0
H 10.535155 10.535155 8.056295 0
H 10.535155 11.774585000000002 9.295725000000001 0
H 11.774585000000002 10.535155 9.295725000000001 0
H 11.774585000000002 11.774585000000002 8.056295 0
H 10.535155 10.535155 10.535155 0
H 10.535155 11.774585000000002 11.774585000000002 0
H 11.774585000000002 10.535155 11.774585000000002 0
H 11.774585000000002 11.774585000000002 10.535155 0
H 10.535155 10.535155 13.014015000000002 0
H 10.535155 11.774585000000002 14.253445000000003 0
H 11.774585000000002 10.535155 14.253445000000003 0
H 11.774585000000002 11.774585000000002 13.014015000000002 0
H 10.535155 10.535155 15.492875 0
H 10.535155 11.774585000000002 16.732305 0
H 11.774585000000002 10.535155 16.732305 0
H 11.774585000000002 11.774585000000002 15.492875 0
H 10.535155 10.535155 17.971735 0
H 10.535155 11.774585000000002 19.211165 0
H 11.774585000000002 10.535155 19.211165 0
H 11.774585000000002 11.774585000000002 17.971735 0
H 10.535155 10.535155 20.450595 0
H 10.535155 11.774585000000002 21.690025000000002 0
H 11.774585000000002 10.535155 21.690025000000002 0
H 11.774585000000002 11.774585000000002 20.450595 0
H 10.535155 13.014015000000002 0.619715 0
H 10.535155 14.253445000000003 1.859145 0
H 11.774585000000002 13.014015000000002 1.859145 0
H 11.774585000000002 14.253445000000003 0.619715 0
H 10.535155 13.014015000000002 3.0985750000000003 0
H 10.535155 14.253445000000003 4.338005 0
H 11.774585000000002 13.014015000000002 4.338005 0
H 11.774585000000002 14.253445000000003 3.0985750000000003 0
H 10.535155 13.014015000000002 5.577435 0
H 10.535155 14.253445000000003 6.816865 0
H 11.774585000000002 13.014015000000002 6.816865 0
H 11.774585000000002 14.253445000000003 5.577435 0
H 10.535155 13.014015000000002 8.056295 0
H 10.535155 14.253445000000003 9.295725000000001 0
H 11.774585000000002 13.014015000000002 9.295725000000001 0
H 11.774585000000002 14.253445000000003 8.056295 0
H 10.535155 13.014015000000002 10.535155 0
H 10.535155 14.253445000000003 11.774585000000002 0
H 11.774585000000002 13.014015000000002 11.774585000000002 0
H 11.774585000000002 14.253445000000003 10.535155 0
H 10.535155 13.014015000000002 13.014015000000002 0
H 10.535155 14.253445000000003 14.253445000000003 0
H 11.774585000000002 13.014015000000002 14.253445000000003 0
H 11.774585000000002 14.253445000000003 13.014015000000002 0
H 10.535155 13.014015000000002 15.492875 0
H 10.535155 14.253445000000003 16.732305 0
H 11.774585000000002 13.014015000000002 16.732305 0
H 11.774585000000002 14.253445000000003 15.492875 0
H 10.535155 13.014015000000002 17.971735 0
H 10.535155 14.253445000000003 19.211165 0
H 11.774585000000002 13.014015000000002 19.211165 0
H 11.774585000000002 14.253445000000003 17.971735 0
H 10.535155 13.014015000000002 20.450595 0
H 10.535155 14.253445000000003 21.690025000000002 0
H 11.774585000000002 13.014015000000002 21.690025000000002 0
H 11.774585000000002 14.253445000000003 20.450595 0
H 10.535155 15.492875 0.619715 0
H 10.535155 16.732305 1.859145 0
H 11.774585000000002 15.492875 1.859145 0
H 11.774585000000002 16.732305 0.619715 0
H 10.535155 15.492875 3.0985750000000003 0
H 10.535155 16.732305 4.338005 0
H 11.774585000000002 15.492875 4.338005 0
H 11.774585000000002 16.732305 3.0985750000000003 0
H 10.535155 15.492875 5.577435 0
H 10.535155 16.732305 6.816865 0
H 11.774585000000002 15.492875 6.816865 0
H 11.774585000000002 16.732305 5.577435 0
H 10.535155 15.492875 8.056295 0
H 10.535155 16.732305 9.295725000000001 0
H 11.774585000000002 15.492875 9.295725000000001 0
H 11.774585000000002 16.732305 8.056295 0
H 10.535155 15.492875 10.535155 0
H 10.535155 16.732305 11.774585000000002 0
H 11.774585000000002 15.492875 11.774585000000002 0
H 11.774585000000002 16.732305 10.535155 0
H 10.535155 15.492875 13.014015000000002 0
H 10.535155 16.732305 14.253445000000003 0
H 11.774585000000002 15.492875 14.253445000000003 0
H 11.774585000000002 16.732305 13.014015000000002 0
H 10.535155 15.492875 15.492875 0
H 10.535155 16.732305 16.732305 0
H 11.774585000000002 15.492875 16.732305 0
H 11.774585000000002 16.732305 15.492875 0
H 10.535155 15.492875 17.971735 0
H 10.535155 16.732305 19.211165 0
H 11.774585000000002 15.492875 19.211165 0
H 11.774585000000002 16.732305 17.971735 0
H 10.535155 15.492875 20.450595 0
H 10.535155 16.732305 21.690025000000002 0
H 11.774585000000002 15.492875 21.690025000000002 0
H 11.774585000000002 16.732305 20.450595 0
H 10.535155 17.971735 0.619715 0
H 10.535155 19.211165 1.859145 0
H 11.774585000000002 17.971735 1.859145 0
H 11.774585000000002 19.211165 0.619715 0
H 10.535155 17.971735 3.0985750000000003 0
H 10.535155 19.211165 4.338005 0
H 11.774585000000002 17.971735 4.338005 0
H 11.774585000000002 19.211165 3.0985750000000003 0
H 10.535155 17.971735 5.577435 0
H 10.535155 19.211165 6.816865 0
H 11.774585000000002 17.971735 6.816865 0
H 11.774585000000002 19.211165 5.577435 0
H 10.535155 17.971735 8.056295 0
H 10.535155 19.211165 9.295725000000001 0
H 11.774585000000002 17.971735 9.295725000000001 0
H 11.774585000000002 19.211165 8.056295 0
H 10.535155 17.971735 10.535155 0
H 10.535155 19.211165 11.774585000000002 0
H 11.774585000000002 17.971735 11.774585000000002 0
H 11.774585000000002 19.211165 10.535155 0
H 10.535155 17.971735 13.014015000000002 0
H 10.535155 19.211165 14.253445000000003 0
H 11.774585000000002 17.971735 14.253445000000003 0
H 11.774585000000002 19.211165 13.014015000000002 0
H 10.535155 17.971735 15.492875 0
H 10.535155 19.211165 16.732305 0
H 11.774585000000002 17.971735 16.732305 0
H 11.774585000000002 19.211165 15.492875 0
H 10.535155 17.971735 17.971735 0
H 10.535155 19.211165 19.211165 0
H 11.774585000000002 17.971735 19.211165 0
H 11.774585000000002 19.211165 17.971735 0
H 10.535155 17.971735 20.450595 0
H 10.535155 19.211165 21.690025000000002 0
H 11.774585000000002 17.971735 21.690025000000002 0
H 11.774585000000002 19.211165 20.450595 0
H 10.535155 20.450595 0.619715 0
H 10.535155 21.690025000000002 1.859145 0
H 11.774585000000002 20.450595 1.859145 0
H 11.774585000000002 21.690025000000002 0.619715 0
H 10.535155 20.450595 3.0985750000000003 0
H 10.535155 21.690025000000002 4.338005 0
H 11.774585000000002 20.450595 4.338005 0
H 11.774585000000002 21.690025000000002 3.0985750000000003 0
H 10.535155 20.450595 5.577435 0
H 10.535155 21.690025000000002 6.816865 0
H 11.774585000000002 20.450595 6.816865 0
H 11.774585000000002 21.690025000000002 5.577435 0
H 10.535155 20.450595 8.056295 0
H 10.535155 21.690025000000002 9.295725000000001 0
H 11.774585000000002 20.450595 9.295725000000001 0
H 11.774585000000002 21.690025000000002 8.056295 0
H 10.535155 20.450595 10.535155 0
H 10.535155 21.690025000000002 11.774585000000002 0
H 11.774585000000002 20.450595 11.774585000000002 0
H 11.774585000000002 21.690025000000002 10.535155 0
H 10.535155 20.450595 13.014015000000002 0
H 10.535155 21.690025000000002 14.253445000000003 0
H 11.774585000000002 20.450595 14.253445000000003 0
H 11.774585000000002 21.690025000000002 13.014015000000002 0
H 10.535155 20.450595 15.492875 0
H 10.535155 21.690025000000002 16.732305 0
H 11.774585000000002 20.450595 16.732305 0
H 11.774585000000002 21.690025000000002 15.492875 0
H 10.535155 20.450595 17.971735 0
H 10.535155 21.690025000000002 19.211165 0
H 11.774585000000002 20.450595 19.211165 0
H 11.774585000000002 21.690025000000002 17.971735 0
H 10.535155 20.450595 20.450595 0
H 10.535155 21.690025000000002 21.690025000000002 0
H 11.774585000000002 20.450595 21.690025000000002 0
H 11.774585000000002 21.690025000000002 20.450595 0
H 13.014015000000002 0.619715 0.619715 0
H 13.014015000000002 1.859145 1.859145 0
H 14.253445000000003 0.619715 1.859145 0
H 14.253445000000003 1.859145 0.619715 0
H 13.014015000000002 0.619715 3.0985750000000003 0
H 13.014015000000002 1.859145 4.338005 0
H 14.253445000000003 0.619715 4.338005 0
H 14.253445000000003 1.859145 3.0985750000000003 0
H 13.014015000000002 0.619715 5.577435 0
H 13.014015000000002 1.859145 6.816865 0
H 14.253445000000003 0.619715 6.816865 0
H 14.253445000000003 1.859145 5.577435 0
H 13.014015000000002 0.619715 8.056295 0
H 13.014015000000002 1.859145 9.295725000000001 0
H 14.253445000000003 0.619715 9.295725000000001 0
H 14.253445000000003 1.859145 8.056295 0
H 13.014015000000002 0.619715 10.535155 0
H 13.014015000000002 1.859145 11.774585000000002 0
H 14.253445000000003 0.619715 11.774585000000002 0
H 14.253445000000003 1.859145 10.535155 0
H 13.014015000000002 0.619715 13.014015000000002 0
H 13.014015000000002 1.859145 14.253445000000003 0
H 14.253445000000003 0.619715 14.253445000000003 0
H 14.253445000000003 1.859145 13.014015000000002 0
H 13.014015000000002 0.619715 15.492875 0
H 13.014015000000002 1.859145 16.732305 0
H 14.253445000000003 0.619715 16.732305 0
H 14.253445000000003 1.859145 15.492875 0
H 13.014015000000002 0.619715 17.971735 0
H 13.014015000000002 1.859145 19.211165 0
H 14.253445000000003 0.619715 19.211165 0
H 14.253445000000003 1.859145 17.971735 0
H 13.014015000000002 0.619715 20.450595 0
H 13.014015000000002 1.859145 21.690025000000002 0
H 14.253445000000003 0.619715 21.690025000000002 0
H 14.253445000000003 1.859145 20.450595 0
H 13.014015000000002 3.0985750000000003 0.619715 0
H 13.014015000000002 4.338005 1.859145 0
H 14.253445000000003 3.0985750000000003 1.859145 0
H 14.253445000000003 4.338005 0.619715 0
H 13.014015000000002 3.0985750000000003 3.0985750000000003 0
H 13.014015000000002 4.338005 4.338005 0
H 14.253445000000003 3.0985750000000003 4.338005 0
H 14.253445000000003 4.338005 3.0985750000000003 0
H 13.014015000000002 3.0985750000000003 5.577435 0
H 13.014015000000002 4.338005 6.816865 0
H 14.253445000000003 3.0985750000000003 6.816865 0
H 14.253445000000003 4.338005 5.577435 0
H 13.014015000000002 3.0985750000000003 8.056295 0
H 13.014015000000002 4.338005 9.295725000000001 0
H 14.253445000000003 3.0985750000000003 9.295725000000001 0
H 14.253445000000003 4.338005 8.056295 0
H 13.014015000000002 3.0985750000000003 10.535155 0
H 13.014015000000002 4.338005 11.774585000000002 0
H 14.253445000000003 3.0985750000000003 11.774585000000002 0
H 14.253445000000003 4.338005 10.535155 0
H 13.014015000000002 3.0985750000000003 13.014015000000002 0
H 13.014015000000002 4.338005 14.253445000000003 0
H 14.253445000000003 3.0985750000000003 14.253445000000003 0
H 14.253445000000003 4.338005 13.014015000000002 0
H 13.014015000000002 3.0985750000000003 15.492875 0
H 13.014015000000002 4.338005 16.732305 0
H 14.253445000000003 3.0985750000000003 16.732305 0
H 14.253445000000003 4.338005 15.492875 0
H 13.014015000000002 3.0985750000000003 17.971735 0
H 13.014015000000002 4.338005 19.211165 0
H 14.253445000000003 3.0985750000000003 19.211165 0
H 14.253445000000003 4.338005 17.971735 0
H 13.014015000000002 3.0985750000000003 20.450595 0
H 13.014015000000002 4.338005 21.690025000000002 0
H 14.253445000000003 3.0985750000000003 21.690025000000002 0
H 14.253445000000003 4.338005 20.450595 0
H 13.014015000000002 5.577435 0.619715 0
H 13.014015000000002 6.816865 1.859145 0
H 14.253445000000003 5.577435 1.859145 0
H 14.253445000000003 6.816865 0.619715 0
H 13.014015000000002 5.577435 3.0985750000000003 0
H 13.014015000000002 6.816865 4.338005 0
H 14.253445000000003 5.577435 4.338005 0
H 14.253445000000003 6.816865 3.0985750000000003 0
H 13.014015000000002 5.577435 5.577435 0
H 13.014015000000002 6.816865 6.816865 0
H 14.253445000000003 5.577435 6.816865 0
H 14.253445000000003 6.816865 5.577435 0
H 13.014015000000002 5.577435 8.056295 0
H 13.014015000000002 6.816865 9.295725000000001 0
H 14.253445000000003 5.577435 9.295725000000001 0
H 14.253445000000003 6.816865 8.056295 0
H 13.014015000000002 5.577435 10.535155 0
H 13.014015000000002 6.816865 11.774585000000002 0
H 14.253445000000003 5.577435 11.774585000000002 0
H 14.253445000000003 6.816865 10.535155 0
H 13.014015000000002 5.577435 13.014015000000002 0
H 13.014015000000002 6.816865 14.253445000000003 0
H 14.253445000000003 5.577435 14.253445000000003 0
H 14.253445000000003 6.816865 13.014015000000002 0
H 13.014015000000002 5.577435 15.492875 0
H 13.014015000000002 6.816865 16.732305 0
H 14.253445000000003 5.577435 16.732305 0
H 14.253445000000003 6.816865 15.492875 0
H 13.014015000000002 5.577435 17.971735 0
H 13.014015000000002 6.816865 19.211165 0
H 14.253445000000003 5.577435 19.211165 0
H 14.253445000000003 6.816865 17.971735 0
H 13.014015000000002 5.577435 20.450595 0
H 13.014015000000002 6.816865 21.690025000000002 0
H 14.253445000000003 5.577435 21.690025000000002 0
H 14.253445000000003 6.816865 20.450595 0
H 13.014015000000002 8.056295 0.619715 0
H 13.014015000000002 9.295725000000001 1.859145 0
H 14.253445000000003 8.056295 1.859145 0
H 14.253445000000003 9.295725000000001 0.619715 0
H 13.014015000000002 8.056295 3.0985750000000003 0
H 13.014015000000002 9.295725000000001 4.338005 0
H 14.253445000000003 8.056295 4.338005 0
H 14.253445000000003 9.295725000000001 3.0985750000000003 0
H 13.014015000000002 8.056295 5.577435 0
H 13.014015000000002 9.295725000000001 6.816865 0
H 14.253445000000003 8.056295 6.816865 0
H 14.253445000000003 9.295725000000001 5.577435 0
H 13.014015000000002 8.056295 8.056295 0
H 13.014015000000002 9.295725000000001 9.295725000000001 0
H 14.253445000000003 8.056295 9.295725000000001 0
H 14.253445000000003 9.295725000000001 8.056295 0
H 13.014015000000002 8.056295 10.535155 0
H 13.014015000000002 9.295725000000001 11.774585000000002 0
H 14.253445000000003 8.056295 11.774585000000002 0
H 14.253445000000003 9.295725000000001 10.535155 0
H 13.014015000000002 8.056295 13.014015000000002 0
H 13.014015000000002 9.295725000000001 14.253445000000003 0
H 14.253445000000003 8.056295 14.253445000000003 0
H 14.253445000000003 9.295725000000001 13.014015000000002 0
H 13.014015000000002 8.056295 15.492875 0
H 13.014015000000002 9.295725000000001 16.732305 0
H 14.253445000000003 8.056295 16.732305 0
H 14.253445000000003 9.295725000000001 15.492875 0
H 13.014015000000002 8.056295 17.971735 0
H 13.014015000000002 9.295725000000001 19.211165 0
H 14.253445000000003 8.056295 19.211165 0
H 14.253445000000003 9.295725000000001 17.971735 0
H 13.014015000000002 8.056295 20.450595 0
H 13.014015000000002 9.295725000000001 21.690025000000002 0
H 14.253445000000003 8.056295 21.690025000000002 0
H 14.253445000000003 9.295725000000001 20.450595 0
H 13.014015000000002 10.535155 0.619715 0
H 13.014015000000002 11.774585000000002 1.859145 0
H 14.253445000000003 10.535155 1.859145 0
H 14.253445000000003 11.774585000000002 0.619715 0
H 13.014015000000002 10.535155 3.0985750000000003 0
H 13.014015000000002 11.774585000000002 4.338005 0
H 14.253445000000003 10.535155 4.338005 0
H 14.253445000000003 11.774585000000002 3.0985750000000003 0
H 13.014015000000002 10.535155 5.577435 0
H 13.014015000000002 11.774585000000002 6.816865 0
H 14.253445000000003 10.535155 6.816865 0
H 14.253445000000003 11.774585000000002 5.577435 0
H 13.014015000000002 10.535155 8.056295 0
H 13.014015000000002 11.774585000000002 9.295725000000001 0
H 14.253445000000003 10.535155 9.295725000000001 0
H 14.253445000000003 11.774585000000002 8.056295 0
H 13.014015000000002 10.535155 10.535155 0
H 13.014015000000002 11.774585000000002 11.774585000000002 0
H 14.253445000000003 10.535155 11.774585000000002 0
H 14.253445000000003 11.774585000000002 10.535155 0
H 13.014015000000002 10.535155 13.014015000000002 0
H 13.014015000000002 11.774585000000002 14.253445000000003 0
H 14.253445000000003 10.535155 14.253445000000003 0
H 14.253445000000003 11.774585000000002 13.014015000000002 0
H 13.014015000000002 10.535155 15.492875 0
H 13.014015000000002 11.774585000000002 16.732305 0
H 14.253445000000003 10.535155 16.732305 0
H 14.253445000000003 11.774585000000002 15.492875 0
H 13.014015000000002 10.535155 17.971735 0
H 13.014015000000002 11.774585000000002 19.211165 0
H 14.253445000000003 10.535155 19.211165 0
H 14.253445000000003 11.774585000000002 17.971735 0
H 13.014015000000002 10.535155 20.450595 0
H 13.014015000000002 11.774585000000002 21.690025000000002 0
H 14.253445000000003 10.535155 21.690025000000002 0
H 14.253445000000003 11.774585000000002 20.450595 0
H 13.014015000000002 13.014015000000002 0.619715 0
H 13.014015000000002 14.253445000000003 1.859145 0
H 14.253445000000003 13.014015000000002 1.859145 0
H 14.253445000000003 14.253445000000003 0.619715 0
H 13.014015000000002 13.014015000000002 3.0985750000000003 0
H 13.014015000000002 14.253445000000003 4.338005 0
H 14.253445000000003 13.014015000000002 4.338005 0
H 14.253445000000003 14.253445000000003 3.0985750000000003 0
H 13.014015000000002 13.014015000000002 5.577435 0
H 13.014015000000002 14.253445000000003 6.816865 0
H 14.253445000000003 13.014015000000002 6.816865 0
H 14.253445000000003 14.253445000000003 5.577435 0
H 13.014015000000002 13.014015000000002 8.056295 0
H 13.014015000000002 14.253445000000003 9.295725000000001 0
H 14.253445000000003 13.014015000000002 9.295725000000001 0
H 14.253445000000003 14.253445000000003 8.056295 0
H 13.014015000000002 13.014015000000002 10.535155 0
H 13.014015000000002 14.253445000000003 11.774585000000002 0
H 14.253445000000003 13.014015000000002 11.774585000000002 0
H 14.253445000000003 14.253445000000003 10.535155 0
H 13.014015000000002 13.014015000000002 13.014015000000002 0
H 13.014015000000002 14.253445000000003 14.253445000000003 0
H 14.253445000000003 13.014015000000002 14.253445000000003 0
H 14.253445000000003 14.253445000000003 13.014015000000002 0
H 13.014015000000002 13.014015000000002 15.492875 0
H 13.014015000000002 14.253445000000003 16.732305 0
H 14.253445000000003 13.014015000000002 16.732305 0
H 14.253445000000003 14.253445000000003 15.492875 0
H 13.014015000000002 13.014015000000002 17.971735 0
H 13.014015000000002 14.253445000000003 19.211165 0
H 14.253445000000003 13.014015000000002 19.211165 0
H 14.253445000000003 14.253445000000003 17.971735 0
H 13.014015000000002 13.014015000000002 20.450595 0
H 13.014015000000002 14.253445000000003 21.690025000000002 0
H 14.253445000000003 13.014015000000002 21.690025000000002 0
H 14.253445000000003 14.253445000000003 20.450595 0
H 13.014015000000002 15.492875 0.619715 0
H 13.014015000000002 16.732305 1.859145 0
H 14.253445000000003 15.492875 1.859145 0
H 14.253445000000003 16.732305 0.619715 0
H 13.014015000000002 15.492875 3.0985750000000003 0
H 13.014015000000002 16.732305 4.338005 0
H 14.253445000000003 15.492875 4.338005 0
H 14.253445000000003 16.732305 3.0985750000000003 0
H 13.014015000000002 15.492875 5.577435 0
H 13.014015000000002 16.732305 6.816865 0
H 14.253445000000003 15.492875 6.816865 0
H 14.253445000000003 16.732305 5.577435 0
H 13.014015000000002 15.492875 8.056295 0
H 13.014015000000002 16.732305 9.295725000000001 0
H 14.253445000000003 15.492875 9.295725000000001 0
H 14.253445000000003 16.732305 8.056295 0
H 13.014015000000002 15.492875 10.535155 0
H 13.014015000000002 16.732305 11.774585000000002 0
H 14.253445000000003 15.492875 11.774585000000002 0
H 14.253445000000003 16.732305 10.535155 0
H 13.014015000000002 15.492875 13.014015000000002 0
H 13.014015000000002 16.732305 14.253445000000003 0
H 14.253445000000003 15.492875 14.253445000000003 0
H 14.253445000000003 16.732305 13.014015000000002 0
H 13.014015000000002 15.492875 15.492875 0
H 13.014015000000002 16.732305 16.732305 0
H 14.253445000000003 15.492875 16.732305 0
H 14.253445000000003 16.732305 15.492875 0
H 13.014015000000002 15.492875 17.971735 0
H 13.014015000000002 16.732305 19.211165 0
H 14.253445000000003 15.492875 19.211165 0
H 14.253445000000003 16.732305 17.971735 0
H 13.014015000000002 15.492875 20.450595 0
H 13.014015000000002 16.732305 21.690025000000002 0
H 14.253445000000003 15.492875 21.690025000000002 0
H 14.253445000000003 16.732305 20.450595 0
H 13.014015000000002 17.971735 0.619715 0
H 13.014015000000002 19.211165 1.859145 0
H 14.253445000000003 17.971735 1.859145 0
H 14.253445000000003 19.211165 0.619715 0
H 13.014015000000002 17.971735 3.0985750000000003 0
H 13.014015000000002 19.211165 4.338005 0
H 14.253445000000003 17.971735 4.338005 0
H 14.253445000000003 19.211165 3.0985750000000003 0
H 13.014015000000002 17.971735 5.577435 0
H 13.014015000000002 19.211165 6.816865 0
H 14.253445000000003 17.971735 6.816865 0
H 14.253445000000003 19.211165 5.577435 0
H 13.014015000000002 17.971735 8.056295 0
H 13.014015000000002 19.211165 9.295725000000001 0
H 14.253445000000003 17.971735 9.295725000000001 0
H 14.253445000000003 19.211165 8.056295 0
H 13.014015000000002 17.971735 10.535155 0
H 13.014015000000002 19.211165 11.774585000000002 0
H 14.253445000000003 17.971735 11.774585000000002 0
H 14.253445000000003 19.211165 10.535155 0
H 13.014015000000002 17.971735 13.014015000000002 0
H 13.014015000000002 19.211165 14.253445000000003 0
H 14.253445000000003 17.971735 14.253445000000003 0
H 14.253445000000003 19.211165 13.014015000000002 0
H 13.014015000000002 17.971735 15.492875 0
H 13.014015000000002 19.211165 16.732305 0
H 14.253445000000003 17.971735 16.732305 0
H 14.253445000000003 19.211165 15.492875 0
H 13.014015000000002 17.971735 17.971735 0
H 13.014015000000002 19.211165 19.211165 0
H 14.253445000000003 17.971735 19.211165 0
H 14.253445000000003 19.211165 17.971735 0
H 13.014015000000002 17.971735 20.450595 0
H 13.014015000000002 19.211165 21.690025000000002 0
H 14.253445000000003 17.971735 21.690025000000002 0
H 14.253445000000003 19.211165 20.450595 0
H 13.014015000000002 20.450595 0.619715 0
H 13.014015000000002 21.690025000000002 1.859145 0
H 14.253445000000003 20.450595 1.859145 0
H 14.253445000000003 21.690025000000002 0.619715 0
H 13.014015000000002 20.450595 3.0985750000000003 0
H 13.014015000000002 21.690025000000002 4.338005 0
H 14.253445000000003 20.450595 4.338005 0
H 14.253445000000003 21.690025000000002 3.0985750000000003 0
H 13.014015000000002 20.450595 5.577435 0
H 13.014015000000002 21.690025000000002 6.816865 0
H 14.253445000000003 20.450595 6.816865 0
H 14.253445000000003 21.690025000000002 5.577435 0
H 13.014015000000002 20.450595 8.056295 0
H 13.014015000000002 21.690025000000002 9.295725000000001 0
H 14.253445000000003 20.450595 9.295725000000001 0
H 14.253445000000003 21.690025000000002 8.056295 0
H 13.014015000000002 20.450595 10.535155 0
H 13.014015000000002 21.690025000000002 11.774585000000002 0
H 14.253445000000003 20.450595 11.774585000000002 0
H 14.253445000000003 21.690025000000002 10.535155 0
H 13.014015000000002 20.450595 13.014015000000002 0
H 13.014015000000002 21.690025000000002 14.253445000000003 0
H 14.253445000000003 20.450595 14.253445000000003 0
H 14.253445000000003 21.690025000000002 13.014015000000002 0
H 13.014015000000002 20.450595 15.492875 0
H 13.014015000000002 21.690025000000002 16.732305 0
H 14.253445000000003 20.450595 16.732305 0
H 14.253445000000003 21.690025000000002 15.492875 0
H 13.014015000000002 20.450595 17.971735 0
H 13.014015000000002 21.690025000000002 19.211165 0
H 14.253445000000003 20.450595 19.211165 0
H 14.253445000000003 21.690025000000002 17.971735 0
H 13.014015000000002 20.450595 20.450595 0
H 13.014015000000002 21.690025000000002 21.690025000000002 0
H 14.253445000000003 20.450595 21.690025000000002 0
H 14.253445000000003 21.690025000000002 20.450595 0
H 15.492875 0.619715 0.619715 0
H 15.492875 1.859145 1.859145 0
H 16.732305 0.619715 1.859145 0
H 16.732305 1.859145 0.619715 0
H 15.492875 0.619715 3.0985750000000003 0
H 15.492875 1.859145 4.338005 0
H 16.732305 0.619715 4.338005 0
H 16.732305 1.859145 3.0985750000000003 0
H 15.492875 0.619715 5.577435 0
H 15.492875 1.859145 6.816865 0
H 16.732305 0.619715 6.816865 0
H 16.732305 1.859145 5.577435 0
H 15.492875 0.619715 8.056295 0
H 15.492875 1.859145 9.295725000000001 0
H 16.732305 0.619715 9.295725000000001 0
H 16.732305 1.859145 8.056295 0
H 15.492875 0.619715 10.535155 0
H 15.492875 1.859145 11.774585000000002 0
H 16.732305 0.619715 11.774585000000002 0
H 16.732305 1.859145 10.535155 0
H 15.492875 0.619715 13.014015000000002 0
H 15.492875 1.859145 14.253445000000003 0
H 16.732305 0.619715 14.253445000000003 0
H 16.732305 1.859145 13.014015000000002 0
H 15.492875 0.619715 15.492875 0
H 15.492875 1.859145 16.732305 0
H 16.732305 0.619715 16.732305 0
H 16.732305 1.859145 15.492875 0
H 15.492875 0.619715 17.971735 0
H 15.492875 1.859145 19.211165 0
H 16.732305 0.619715 19.211165 0
H 16.732305 1.859145 17.971735 0
H 15.492875 0.619715 20.450595 0
H 15.492875 1.859145 21.690025000000002 0
H 16.732305 0.619715 21.690025000000002 0
H 16.732305 1.859145 20.450595 0
H 15.492875 3.0985750000000003 0.619715 0
H 15.492875 4.338005 1.859145 0
H 16.732305 3.0985750000000003 1.859145 0
H 16.732305 4.338005 0.619715 0
H 15.492875 3.0985750000000003 3.0985750000000003 0
H 15.492875 4.338005 4.338005 0
H 16.732305 3.0985750000000003 4.338005 0
H 16.732305 4.338005 3.0985750000000003 0
H 15.492875 3.0985750000000003 5.577435 0
H 15.492875 4.338005 6.816865 0
H 16.732305 3.0985750000000003 6.816865 0
H 16.732305 4.338005 5.577435 0
H 15.492875 3.0985750000000003 8.056295 0
H 15.492875 4.338005 9.295725000000001 0
H 16.732305 3.0985750000000003 9.295725000000001 0
H 16.732305 4.338005 8.056295 0
H 15.492875 3.0985750000000003 10.535155 0
H 15.492875 4.338005 11.774585000000002 0
H 16.732305 3.0985750000000003 11.774585000000002 0
H 16.732305 4.338005 10.535155 0
H 15.492875 3.0985750000000003 13.014015000000002 0
H 15.492875 4.338005 14.253445000000003 0
H 16.732305 3.0985750000000003 14.253445000000003 0
H 16.732305 4.338005 13.014015000000002 0
H 15.492875 3.0985750000000003 15.492875 0
H 15.492875 4.338005 16.732305 0
H 16.732305 3.0985750000000003 16.732305 0
H 16.732305 4.338005 15.492875 0
H 15.492875 3.0985750000000003 17.971735 0
H 15.492875 4.338005 19.211165 0
H 16.732305 3.0985750000000003 19.211165 0
H 16.732305 4.338005 17.971735 0
H 15.492875 3.0985750000000003 20.450595 0
H 15.492875 4.338005 21.690025000000002 0
H 16.732305 3.0985750000000003 21.690025000000002 0
H 16.732305 4.338005 20.450595 0
H 15.492875 5.577435 0.619715 0
H 15.492875 6.816865 1.859145 0
H 16.732305 5.577435 1.859145 0
H 16.732305 6.816865 0.619715 0
H 15.492875 5.577435 3.0985750000000003 0
H 15.492875 6.816865 4.338005 0
H 16.732305 5.577435 4.338005 0
H 16.732305 6.816865 3.0985750000000003 0
H 15.492875 5.577435 5.577435 0
H 15.492875 6.816865 6.816865 0
H 16.732305 5.577435 6.816865 0
H 16.732305 6.816865 5.577435 0
H 15.492875 5.577435 8.056295 0
H 15.492875 6.816865 9.295725000000001 0
H 16.732305 5.577435 9.295725000000001 0
H 16.732305 6.816865 8.056295 0
H 15.492875 5.577435 10.535155 0
H 15.492875 6.816865 11.774585000000002 0
H 16.732305 5.577435 11.774585000000002 0
H 16.732305 6.816865 10.535155 0
H 15.492875 5.577435 13.014015000000002 0
H 15.492875 6.816865 14.253445000000003 0
H 16.732305 5.577435 14.253445000000003 0
H 16.732305 6.816865 13.014015000000002 0
H 15.492875 5.577435 15.492875 0
H 15.492875 6.816865 16.732305 0
H 16.732305 5.577435 16.732305 0
H 16.732305 6.816865 15.492875 0
H 15.492875 5.577435 17.971735 0
H 15.492875 6.816865 19.211165 0
H 16.732305 5.577435 19.211165 0
H 16.732305 6.816865 17.971735 0
H 15.492875 5.577435 20.450595 0
H 15.492875 6.816865 21.690025000000002 0
H 16.732305 5.577435 21.690025000000002 0
H 16.732305 6.816865 20.450595 0
H 15.492875 8.056295 0.619715 0
H 15.492875 9.295725000000001 1.859145 0
H 16.732305 8.056295 1.859145 0
H 16.732305 9.295725000000001 0.619715 0
H 15.492875 8.056295 3.0985750000000003 0
H 15.492875 9.295725000000001 4.338005 0
H 16.732305 8.056295 4.338005 0
H 16.732305 9.295725000000001 3.0985750000000003 0
H 15.492875 8.056295 5.577435 0
H 15.492875 9.295725000000001 6.816865 0
H 16.732305 8.056295 6.816865 0
H 16.732305 9.295725000000001 5.577435 0
H 15.492875 8.056295 8.056295 0
H 15.492875 9.295725000000001 9.295725000000001 0
H 16.732305 8.056295 9.295725000000001 0
H 16.732305 9.295725000000001 8.056295 0
H 15.492875 8.056295 10.535155 0
H 15.492875 9.295725000000001 11.774585000000002 0
H 16.732305 8.056295 11.774585000000002 0
H 16.732305 9.295725000000001 10.535155 0
H 15.492875 8.056295 13.014015000000002 0
H 15.492875 9.295725000000001 14.253445000000003 0
H 16.732305 8.056295 14.253445000000003 0
H 16.732305 9.295725000000001 13.014015000000002 0
H 15.492875 8.056295 15.492875 0
H 15.492875 9.295725000000001 16.732305 0
H 16.732305 8.056295 16.732305 0
H 16.732305 9.295725000000001 15.492875 0
H 15.492875 8.056295 17.971735 0
H 15.492875 9.295725000000001 19.211165 0
H 16.732305 8.056295 19.211165 0
H 16.732305 9.295725000000001 17.971735 0
H 15.492875 8.056295 20.450595 0
H 15.492875 9.295725000000001 21.690025000000002 0
H 16.732305 8.056295 21.690025000000002 0
H 16.732305 9.295725000000001 20.450595 0
H 15.492875 10.535155 0.619715 0
H 15.492875 11.774585000000002 1.859145 0
H 16.732305 10.535155 1.859145 0
H 16.732305 11.774585000000002 0.619715 0
H 15.492875 10.535155 3.0985750000000003 0
H 15.492875 11.774585000000002 4.338005 0
H 16.732305 10.535155 4.338005 0
H 16.732305 11.774585000000002 3.0985750000000003 0
H 15.492875 10.535155 5.577435 0
H 15.492875 11.774585000000002 6.816865 0
H 16.732305 10.535155 6.816865 0
H 16.732305 11.774585000000002 5.577435 0
H 15.492875 10.535155 8.056295 0
H 15.492875 11.774585000000002 9.295725000000001 0
H 16.732305 10.535155 9.295725000000001 0
H 16.732305 11.774585000000002 8.056295 0
H 15.492875 10.535155 10.535155 0
H 15.492875 11.774585000000002 11.774585000000002 0
H 16.732305 10.535155 11.774585000000002 0
H 16.732305 11.774585000000002 10.535155 0
H 15.492875 10.535155 13.014015000000002 0
H 15.492875 11.774585000000002 14.253445000000003 0
H 16.732305 10.535155 14.253445000000003 0
H 16.732305 11.774585000000002 13.014015000000002 0
H 15.492875 10.535155 15.492875 0
H 15.492875 11.774585000000002 16.732305 0
H 16.732305 10.535155 16.732305 0
H 16.732305 11.774585000000002 15.492875 0
H 15.492875 10.535155 17.971735 0
H 15.492875 11.774585000000002 19.211165 0
H 16.732305 10.535155 19.211165 0
H 16.732305 11.774585000000002 17.971735 0
H 15.492875 10.535155 20.450595 0
H 15.492875 11.774585000000002 21.690025000000002 0
H 16.732305 10.535155 21.690025000000002 0
H 16.732305 11.774585000000002 20.450595 0
H 15.492875 13.014015000000002 0.619715 0
H 15.492875 14.253445000000003 1.859145 0
H 16.732305 13.014015000000002 1.859145 0
H 16.732305 14.253445000000003 0.619715 0
H 15.492875 13.014015000000002 3.0985750000000003 0
H 15.492875 14.253445000000003 4.338005 0
H 16.732305 13.014015000000002 4.338005 0
H 16.732305 14.253445000000003 3.0985750000000003 0
H 15.492875 13.014015000000002 5.577435 0
H 15.492875 14.253445000000003 6.816865 0
H 16.732305 13.014015000000002 6.816865 0
H 16.732305 14.253445000000003 5.577435 0
H 15.492875 13.014015000000002 8.056295 0
H 15.492875 14.253445000000003 9.295725000000001 0
H 16.732305 13.014015000000002 9.295725000000001 0
H 16.732305 14.253445000000003 8.056295 0
H 15.492875 13.014015000000002 10.535155 0
H 15.492875 14.253445000000003 11.774585000000002 0
H 16.732305 13.014015000000002 11.774585000000002 0
H 16.732305 14.253445000000003 10.535155 0
H 15.492875 13.014015000000002 13.014015000000002 0
H 15.492875 14.253445000000003 14.253445000000003 0
H 16.732305 13.014015000000002 14.253445000000003 0
H 16.732305 14.253445000000003 13.014015000000002 0
H 15.492875 13.014015000000002 15.492875 0
H 15.492875 14.253445000000003 16.732305 0
H 16.732305 13.014015000000002 16.732305 0
H 16.732305 14.253445000000003 15.492875 0
H 15.492875 13.014015000000002 17.971735 0
H 15.492875 14.253445000000003 19.211165 0
H 16.732305 13.014015000000002 19.211165 0
H 16.732305 14.253445000000003 17.971735 0
H 15.492875 13.014015000000002 20.450595 0
H 15.492875 14.253445000000003 21.690025000000002 0
H 16.732305 13.014015000000002 21.690025000000002 0
H 16.732305 14.253445000000003 20.450595 0
H 15.492875 15.492875 0.619715 0
H 15.492875 16.732305 1.859145 0
H 16.732305 15.492875 1.859145 0
H 16.732305 16.732305 0.619715 0
H 15.492875 15.492875 3.0985750000000003 0
H 15.492875 16.732305 4.338005 0
H 16.732305 15.492875 4.338005 0
H 16.732305 16.732305 3.0985750000000003 0
H 15.492875 15.492875 5.577435 0
H 15.492875 16.732305 6.816865 0
H 16.732305 15.492875 6.816865 0
H 16.732305 16.732305 5.577435 0
H 15.492875 15.492875 8.056295 0
H 15.492875 16.732305 9.295725000000001 0
H 16.732305 15.492875 9.295725000000001 0
H 16.732305 16.732305 8.056295 0
H 15.492875 15.492875 10.535155 0
H 15.492875 16.732305 11.774585000000002 0
H 16.732305 15.492875 11.774585000000002 0
H 16.732305 16.732305 10.535155 0
H 15.492875 15.492875 13.014015000000002 0
H 15.492875 16.732305 14.253445000000003 0
H 16.732305 15.492875 14.253445000000003 0
H 16.732305 16.732305 13.014015000000002 0
H 15.492875 15.492875 15.492875 0
H 15.492875 16.732305 16.732305 0
H 16.732305 15.492875 16.732305 0
H 16.732305 16.732305 15.492875 0
H 15.492875 15.492875 17.971735 0
H 15.492875 16.732305 19.211165 0
H 16.732305 15.492875 19.211165 0
H 16.732305 16.732305 17.971735 0
H 15.492875 15.492875 20.450595 0
H 15.492875 16.732305 21.690025000000002 0
H 16.732305 15.492875 21.690025000000002 0
H 16.732305 16.732305 20.450595 0
H 15.492875 17.971735 0.619715 0
H 15.492875 19.211165 1.859145 0
H 16.732305 17.971735 1.859145 0
H 16.732305 19.211165 0.619715 0
H 15.492875 17.971735 3.0985750000000003 0
H 15.492875 19.211165 4.338005 0
H 16.732305 17.971735 4.338005 0
H 16.732305 19.211165 3.0985750000000003 0
H 15.492875 17.971735 5.577435 0
H 15.492875 19.211165 6.816865 0
H 16.732305 17.971735 6.816865 0
H 16.732305 19.211165 5.577435 0
H 15.492875 17.971735 8.056295 0
H 15.492875 19.211165 9.295725000000001 0
H 16.732305 17.971735 9.295725000000001 0
H 16.732305 19.211165 8.056295 0
H 15.492875 17.971735 10.535155 0
H 15.492875 19.211165 11.774585000000002 0
H 16.732305 17.971735 11.774585000000002 0
H 16.732305 19.211165 10.535155 0
H 15.492875 17.971735 13.014015000000002 0
H 15.492875 19.211165 14.253445000000003 0
H 16.732305 17.971735 14.253445000000003 0
H 16.732305 19.211165 13.014015000000002 0
H 15.492875 17.971735 15.492875 0
H 15.492875 19.211165 16.732305 0
H 16.732305 17.971735 16.732305 0
H 16.732305 19.211165 15.492875 0
H 15.492875 17.971735 17.971735 0
H 15.492875 19.211165 19.211165 0
H 16.732305 17.971735 19.211165 0
H 16.732305 19.211165 17.971735 0
H 15.492875 17.971735 20.450595 0
H 15.492875 19.211165 21.690025000000002 0
H 16.732305 17.971735 21.690025000000002 0
H 16.732305 19.211165 20.450595 0
H 15.492875 20.450595 0.619715 0
H 15.492875 21.690025000000002 1.859145 0
H 16.732305 20.450595 1.859145 0
H 16.732305 21.690025000000002 0.619715 0
H 15.492875 20.450595 3.0985750000000003 0
H 15.492875 21.690025000000002 4.338005 0
H 16.732305 20.450595 4.338005 0
H 16.732305 21.690025000000002 3.0985750000000003 0
H 15.492875 20.450595 5.577435 0
H 15.492875 21.690025000000002 6.816865 0
H 16.732305 20.450595 6.816865 0
H 16.732305 21.690025000000002 5.577435 0
H 15.492875 20.450595 8.056295 0
H 15.492875 21.690025000000002 9.295725000000001 0
H 16.732305 20.450595 9.295725000000001 0
H 16.732305 21.690025000000002 8.056295 0
H 15.492875 20.450595 10.535155 0
H 15.492875 21.690025000000002 11.774585000000002 0
H 16.732305 20.450595 11.774585000000002 0
H 16.732305 21.690025000000002 10.535155 0
H 15.492875 20.450595 13.014015000000002 0
H 15.492875 21.690025000000002 14.253445000000003 0
H 16.732305 20.450595 14.253445000000003 0
H 16.732305 21.690025000000002 13.014015000000002 0
H 15.492875 20.450595 15.492875 0
H 15.492875 21.690025000000002 16.732305 0
H 16.732305 20.450595 16.732305 0
H 16.732305 21.690025000000002 15.492875 0
H 15.492875 20.450595 17.971735 0
H 15.492875 21.690025000000002 19.211165 0
H 16.732305 20.450595 19.211165 0
H 16.732305 21.690025000000002 17.971735 0
H 15.492875 20.450595 20.450595 0
H 15.492875 21.690025000000002 21.690025000000002 0
H 16.732305 20.450595 21.690025000000002 0
H 16.732305 21.690025000000002 20.450595 0
H 17.971735 0.619715 0.619715 0
H 17.971735 1.859145 1.859145 0
H 19.211165 0.619715 1.859145 0
H 19.211165 1.859145 0.619715 0
H 17.971735 0.619715 3.0985750000000003 0
H 17.971735 1.859145 4.338005 0
H 19.211165 0.619715 4.338005 0
H 19.211165 1.859145 3.0985750000000003 0
H 17.971735 0.619715 5.577435 0
H 17.971735 1.859145 6.816865 0
H 19.211165 0.619715 6.816865 0
H 19.211165 1.859145 5.577435 0
H 17.971735 0.619715 8.056295 0
H 17.971735 1.859145 9.295725000000001 0
H 19.211165 0.619715 9.295725000000001 0
H 19.211165 1.859145 8.056295 0
H 17.971735 0.619715 10.535155 0
H 17.971735 1.859145 11.774585000000002 0
H 19.211165 0.619715 11.774585000000002 0
H 19.211165 1.859145 10.535155 0
H 17.971735 0.619715 13.014015000000002 0
H 17.971735 1.859145 14.253445000000003 0
H 19.211165 0.619715 14.253445000000003 0
H 19.211165 1.859145 13.014015000000002 0
H 17.971735 0.619715 15.492875 0
H 17.971735 1.859145 16.732305 0
H 19.211165 0.619715 16.732305 0
H 19.211165 1.859145 15.492875 0
H 17.971735 0.619715 17.971735 0
H 17.971735 1.859145 19.211165 0
H 19.211165 0.619715 19.211165 0
H 19.211165 1.859145 17.971735 0
H 17.971735 0.619715 20.450595 0
H 17.971735 1.859145 21.690025000000002 0
H 19.211165 0.619715 21.690025000000002 0
H 19.211165 1.859145 20.450595 0
H 17.971735 3.0985750000000003 0.619715 0
H 17.971735 4.338005 1.859145 0
H 19.211165 3.0985750000000003 1.859145 0
H 19.211165 4.338005 0.619715 0
H 17.971735 3.0985750000000003 3.0985750000000003 0
H 17.971735 4.338005 4.338005 0
H 19.211165 3.0985750000000003 4.338005 0
H 19.211165 4.338005 3.0985750000000003 0
H 17.971735 3.0985750000000003 5.577435 0
H 17.971735 4.338005 6.816865 0
H 19.211165 3.0985750000000003 6.816865 0
H 19.211165 4.338005 5.577435 0
H 17.971735 3.0985750000000003 8.056295 0
H 17.971735 4.338005 9.295725000000001 0
H 19.211165 3.0985750000000003 9.295725000000001 0
H 19.211165 4.338005 8.056295 0
H 17.971735 3.0985750000000003 10.535155 0
H 17.971735 4.338005 11.774585000000002 0
H 19.211165 3.0985750000000003 11.774585000000002 0
H 19.211165 4.338005 10.535155 0
H 17.971735 3.0985750000000003 13.014015000000002 0
H 17.971735 4.338005 14.253445000000003 0
H 19.211165 3.0985750000000003 14.253445000000003 0
H 19.211165 4.338005 13.014015000000002 0
H 17.971735 3.0985750000000003 15.492875 0
H 17.971735 4.338005 16.732305 0
H 19.211165 3.0985750000000003 16.732305 0
H 19.211165 4.338005 15.492875 0
H 17.971735 3.0985750000000003 17.971735 0
H 17.971735 4.338005 19.211165 0
H 19.211165 3.0985750000000003 19.211165 0
H 19.211165 4.338005 17.971735 0
H 17.971735 3.0985750000000003 20.450595 0
H 17.971735 4.338005 21.690025000000002 0
H 19.211165 3.0985750000000003 21.690025000000002 0
H 19.211165 4.338005 20.450595 0
H 17.971735 5.577435 0.619715 0
H 17.971735 6.816865 1.859145 0
H 19.211165 5.577435 1.859145 0
H 19.211165 6.816865 0.619715 0
H 17.971735 5.577435 3.0985750000000003 0
H 17.971735 6.816865 4.338005 0
H 19.211165 5.577435 4.338005 0
H 19.211165 6.816865 3.0985750000000003 0
H 17.971735 5.577435 5.577435 0
H 17.971735 6.816865 6.816865 0
H 19.211165 5.577435 6.816865 0
H 19.211165 6.816865 5.577435 0
H 17.971735 5.577435 8.056295 0
H 17.971735 6.816865 9.295725000000001 0
H 19.211165 5.577435 9.295725000000001 0
H 19.211165 6.816865 8.056295 0
H 17.971735 5.577435 10.535155 0
H 17.971735 6.816865 11.774585000000002 0
H 19.211165 5.577435 11.774585000000002 0
H 19.211165 6.816865 10.535155 0
H 17.971735 5.577435 13.014015000000002 0
H 17.971735 6.816865 14.253445000000003 0
H 19.211165 5.577435 14.253445000000003 0
H 19.211165 6.816865 13.014015000000002 0
H 17.971735 5.577435 15.492875 0
H 17.971735 6.816865 16.732305 0
H 19.211165 5.577435 16.732305 0
H 19.211165 6.816865 15.492875 0
H 17.971735 5.577435 17.971735 0
H 17.971735 6.816865 19.211165 0
H 19.211165 5.577435 19.211165 0
H 19.211165 6.816865 17.971735 0
H 17.971735 5.577435 20.450595 0
H 17.971735 6.816865 21.690025000000002 0
H 19.211165 5.577435 21.690025000000002 0
H 19.211165 6.816865 20.450595 0
H 17.971735 8.056295 0.619715 0
H 17.971735 9.295725000000001 1.859145 0
H 19.211165 8.056295 1.859145 0
H 19.211165 9.295725000000001 0.619715 0
H 17.971735 8.056295 3.0985750000000003 0
H 17.971735 9.295725000000001 4.338005 0
H 19.211165 8.056295 4.338005 0
H 19.211165 9.295725000000001 3.0985750000000003 0
H 17.971735 8.056295 5.577435 0
H 17.971735 9.295725000000001 6.816865 0
H 19.211165 8.056295 6.816865 0
H 19.211165 9.295725000000001 5.577435 0
H 17.971735 8.056295 8.056295 0
H 17.971735 9.295725000000001 9.295725000000001 0
H 19.211165 8.056295 9.295725000000001 0
H 19.211165 9.295725000000001 8.056295 0
H 17.971735 8.056295 10.535155 0
H 17.971735 9.295725000000001 11.774585000000002 0
H 19.211165 8.056295 11.774585000000002 0
H 19.211165 9.295725000000001 10.535155 0
H 17.971735 8.056295 13.014015000000002 0
H 17.971735 9.295725000000001 14.253445000000003 0
H 19.211165 8.056295 14.253445000000003 0
H 19.211165 9.295725000000001 13.014015000000002 0
H 17.971735 8.056295 15.492875 0
H 17.971735 9.295725000000001 16.732305 0
H 19.211165 8.056295 16.732305 0
H 19.211165 9.295725000000001 15.492875 0
H 17.971735 8.056295 17.971735 0
H 17.971735 9.295725000000001 19.211165 0
H 19.211165 8.056295 19.211165 0
H 19.211165 9.295725000000001 17.971735 0
H 17.971735 8.056295 20.450595 0
H 17.971735 9.295725000000001 21.690025000000002 0
H 19.211165 8.056295 21.690025000000002 0
H 19.211165 9.295725000000001 20.450595 0
H 17.971735 10.535155 0.619715 0
H 17.971735 11.774585000000002 1.859145 0
H 19.211165 10.535155 1.859145 0
H 19.211165 11.774585000000002 0.619715 0
H 17.971735 10.535155 3.0985750000000003 0
H 17.971735 11.774585000000002 4.338005 0
H 19.211165 10.535155 4.338005 0
H 19.211165 11.774585000000002 3.0985750000000003 0
H 17.971735 10.535155 5.577435 0
H 17.971735 11.774585000000002 6.816865 0
H 19.211165 10.535155 6.816865 0
H 19.211165 11.774585000000002 5.577435 0
H 17.971735 10.535155 8.056295 0
H 17.971735 11.774585000000002 9.295725000000001 0
H 19.211165 10.535155 9.295725000000001 0
H 19.211165 11.774585000000002 8.056295 0
H 17.971735 10.535155 10.535155 0
H 17.971735 11.774585000000002 11.774585000000002 0
H 19.211165 10.535155 11.774585000000002 0
H 19.211165 11.774585000000002 10.535155 0
H 17.971735 10.535155 13.014015000000002 0
H 17.971735 11.774585000000002 14.253445000000003 0
H 19.211165 10.535155 14.253445000000003 0
H 19.211165 11.774585000000002 13.014015000000002 0
H 17.971735 10.535155 15.492875 0
H 17.971735 11.774585000000002 16.732305 0
H 19.211165 10.535155 16.732305 0
H 19.211165 11.774585000000002 15.492875 0
H 17.971735 10.535155 17.971735 0
H 17.971735 11.774585000000002 19.211165 0
H 19.211165 10.535155 19.211165 0
H 19.211165 11.774585000000002 17.971735 0
H 17.971735 10.535155 20.450595 0
H 17.971735 11.774585000000002 21.690025000000002 0
H 19.211165 10.535155 21.690025000000002 0
H 19.211165 11.774585000000002 20.450595 0
H 17.971735 13.014015000000002 0.619715 0
H 17.971735 14.253445000000003 1.859145 0
H 19.211165 13.014015000000002 1.859145 0
H 19.211165 14.253445000000003 0.619715 0
H 17.971735 13.014015000000002 3.0985750000000003 0
H 17.971735 14.253445000000003 4.338005 0
H 19.211165 13.014015000000002 4.338005 0
H 19.211165 14.253445000000003 3.0985750000000003 0
H 17.971735 13.014015000000002 5.577435 0
H 17.971735 14.253445000000003 6.816865 0
H 19.211165 13.014015000000002 6.816865 0
H 19.211165 14.253445000000003 5.577435 0
H 17.971735 13.014015000000002 8.056295 0
H 17.971735 14.253445000000003 9.295725000000001 0
H 19.211165 13.014015000000002 9.295725000000001 0
H 19.211165 14.253445000000003 8.056295 0
H 17.971735 13.014015000000002 10.535155 0
H 17.971735 14.253445000000003 11.774585000000002 0
H 19.211165 13.014015000000002 11.774585000000002 0
H 19.211165 14.253445000000003 10.535155 0
H 17.971735 13.014015000000002 13.014015000000002 0
H 17.971735 14.253445000000003 14.253445000000003 0
H 19.211165 13.014015000000002 14.253445000000003 0
H 19.211165 14.253445000000003 13.014015000000002 0
H 17.971735 13.014015000000002 15.492875 0
H 17.971735 14.253445000000003 16.732305 0
H 19.211165 13.014015000000002 16.732305 0
H 19.211165 14.253445000000003 15.492875 0
H 17.971735 13.014015000000002 17.971735 0
H 17.971735 14.253445000000003 19.211165 0
H 19.211165 13.014015000000002 19.211165 0
H 19.211165 14.253445000000003 17.971735 0
H 17.971735 13.014015000000002 20.450595 0
H 17.971735 14.253445000000003 21.690025000000002 0
H 19.211165 13.014015000000002 21.690025000000002 0
H 19.211165 14.253445000000003 20.450595 0
H 17.971735 15.492875 0.619715 0
H 17.971735 16.732305 1.859145 0
H 19.211165 15.492875 1.859145 0
H 19.211165 16.732305 0.619715 0
H 17.971735 15.492875 3.0985750000000003 0
H 17.971735 16.732305 4.338005 0
H 19.211165 15.492875 4.338005 0
H 19.211165 16.732305 3.0985750000000003 0
H 17.971735 15.492875 5.577435 0
H 17.971735 16.732305 6.816865 0
H 19.211165 15.492875 6.816865 0
H 19.211165 16.732305 5.577435 0
H 17.971735 15.492875 8.056295 0
H 17.971735 16.732305 9.295725000000001 0
H 19.211165 15.492875 9.295725000000001 0
H 19.211165 16.732305 8.056295 0
H 17.971735 15.492875 10.535155 0
H 17.971735 16.732305 11.774585000000002 0
H 19.211165 15.492875 11.774585000000002 0
H 19.211165 16.732305 10.535155 0
H 17.971735 15.492875 13.014015000000002 0
H 17.971735 16.732305 14.253445000000003 0
H 19.211165 15.492875 14.253445000000003 0
H 19.211165 16.732305 13.014015000000002 0
H 17.971735 15.492875 15.492875 0
H 17.971735 16.732305 16.732305 0
H 19.211165 15.492875 16.732305 0
H 19.211165 16.732305 15.492875 0
H 17.971735 15.492875 17.971735 0
H 17.971735 16.732305 19.211165 0
H 19.211165 15.492875 19.211165 0
H 19.211165 16.732305 17.971735 0
H 17.971735 15.492875 20.450595 0
H 17.971735 16.732305 21.690025000000002 0
H 19.211165 15.492875 21.690025000000002 0
H 19.211165 16.732305 20.450595 0
H 17.971735 17.971735 0.619715 0
H 17.971735 19.211165 1.859145 0
H 19.211165 17.971735 1.859145 0
H 19.211165 19.211165 0.619715 0
H 17.971735 17.971735 3.0985750000000003 0
H 17.971735 19.211165 4.338005 0
H 19.211165 17.971735 4.338005 0
H 19.211165 19.211165 3.0985750000000003 0
H 17.971735 17.971735 5.577435 0
H 17.971735 19.211165 6.816865 0
H 19.211165 17.971735 6.816865 0
H 19.211165 19.211165 5.577435 0
H 17.971735 17.971735 8.056295 0
H 17.971735 19.211165 9.295725000000001 0
H 19.211165 17.971735 9.295725000000001 0
H 19.211165 19.211165 8.056295 0
H 17.971735 17.971735 10.535155 0
H 17.971735 19.211165 11.774585000000002 0
H 19.211165 17.971735 11.774585000000002 0
H 19.211165 19.211165 10.535155 0
H 17.971735 17.971735 13.014015000000002 0
H 17.971735 19.211165 14.253445000000003 0
H 19.211165 17.971735 14.253445000000003 0
H 19.211165 19.211165 13.014015000000002 0
H 17.971735 17.971735 15.492875 0
H 17.971735 19.211165 16.732305 0
H 19.211165 17.971735 16.732305 0
H 19.211165 19.211165 15.492875 0
H 17.971735 17.971735 17.971735 0
H 17.971735 19.211165 19.211165 0
H 19.211165 17.971735 19.211165 0
H 19.211165 19.211165 17.971735 0
H 17.971735 17.971735 20.450595 0
H 17.971735 19.211165 21.690025000000002 0
H 19.211165 17.971735 21.690025000000002 0
H 19.211165 19.211165 20.450595 0
H 17.971735 20.450595 0.619715 0
H 17.971735 21.690025000000002 1.859145 0
H 19.211165 20.450595 1.859145 0
H 19.211165 21.690025000000002 0.619715 0
H 17.971735 20.450595 3.0985750000000003 0
H 17.971735 21.690025000000002 4.338005 0
H 19.211165 20.450595 4.338005 0
H 19.211165 21.690025000000002 3.0985750000000003 0
H 17.971735 20.450595 5.577435 0
H 17.971735 21.690025000000002 6.816865 0
H 19.211165 20.450595 6.816865 0
H 19.211165 21.690025000000002 5.577435 0
H 17.971735 20.450595 8.056295 0
H 17.971735 21.690025000000002 9.295725000000001 0
H 19.211165 20.450595 9.295725000000001 0
H 19.211165 21.690025000000002 8.056295 0
H 17.971735 20.450595 10.535155 0
H 17.971735 21.690025000000002 11.774585000000002 0
H 19.211165 20.450595 11.774585000000002 0
H 19.211165 21.690025000000002 10.535155 0
H 17.971735 20.450595 13.014015000000002 0
H 17.971735 21.690025000000002 14.253445000000003 0
H 19.211165 20.450595 14.253445000000003 0
H 19.211165 21.690025000000002 13.014015000000002 0
H 17.971735 20.450595 15.492875 0
H 17.971735 21.690025000000002 16.732305 0
H 19.211165 20.450595 16.732305 0
H 19.211165 21.690025000000002 15.492875 0
H 17.971735 20.450595 17.971735 0
H 17.971735 21.690025000000002 19.211165 0
H 19.211165 20.450595 19.211165 0
H 19.211165 21.690025000000002 17.971735 0
H 17.971735 20.450595 20.450595 0
H 17.971735 21.690025000000002 21.690025000000002 0
H 19.211165 20.450595 21.690025000000002 0
H 19.211165 21.690025000000002 20.450595 0
H 20.450595 0.619715 0.619715 0
H 20.450595 1.859145 1.859145 0
H 21.690025000000002 0.619715 1.859145 0
H 21.690025000000002 1.859145 0.619715 0
H 20.450595 0.619715 3.0985750000000003 0
H 20.450595 1.859145 4.338005 0
H 21.690025000000002 0.619715 4.338005 0
H 21.690025000000002 1.859145 3.0985750000000003 0
H 20.450595 0.619715 5.577435 0
H 20.450595 1.859145 6.816865 0
H 21.690025000000002 0.619715 6.816865 0
H 21.690025000000002 1.859145 5.577435 0
H 20.450595 0.619715 8.056295 0
H 20.450595 1.859145 9.295725000000001 0
H 21.690025000000002 0.619715 9.295725000000001 0
H 21.690025000000002 1.859145 8.056295 0
H 20.450595 0.619715 10.535155 0
H 20.450595 1.859145 11.774585000000002 0
H 21.690025000000002 0.619715 11.774585000000002 0
H 21.690025000000002 1.859145 10.535155 0
H 20.450595 0.619715 13.014015000000002 0
H 20.450595 1.859145 14.253445000000003 0
H 21.690025000000002 0.619715 14.253445000000003 0
H 21.690025000000002 1.859145 13.014015000000002 0
H 20.450595 0.619715 15.492875 0
H 20.450595 1.859145 16.732305 0
H 21.690025000000002 0.619715 16.732305 0
H 21.690025000000002 1.859145 15.492875 0
H 20.450595 0.619715 17.971735 0
H 20.450595 1.859145 19.211165 0
H 21.690025000000002 0.619715 19.211165 0
H 21.690025000000002 1.859145 17.971735 0
H 20.450595 0.619715 20.450595 0
H 20.450595 1.859145 21.690025000000002 0
H 21.690025000000002 0.619715 21.690025000000002 0
H 21.690025000000002 1.859145 20.450595 0
H 20.450595 3.0985750000000003 0.619715 0
H 20.450595 4.338005 1.859145 0
H 21.690025000000002 3.0985750000000003 1.859145 0
H 21.690025000000002 4.338005 0.619715 0
H 20.450595 3.0985750000000003 3.0985750000000003 0
H 20.450595 4.338005 4.338005 0
H 21.690025000000002 3.0985750000000003 4.338005 0
H 21.690025000000002 4.338005 3.0985750000000003 0
H 20.450595 3.0985750000000003 5.577435 0
H 20.450595 4.338005 6.816865 0
H 21.690025000000002 3.0985750000000003 6.816865 0
H 21.690025000000002 4.338005 5.577435 0
H 20.450595 3.0985750000000003 8.056295 0
H 20.450595 4.338005 9.295725000000001 0
H 21.690025000000002 3.0985750000000003 9.295725000000001 0
H 21.690025000000002 4.338005 8.056295 0
H 20.450595 3.0985750000000003 10.535155 0
H 20.450595 4.338005 11.774585000000002 0
H 21.690025000000002 3.0985750000000003 11.774585000000002 0
H 21.690025000000002 4.338005 10.535155 0
H 20.450595 3.0985750000000003 13.014015000000002 0
H 20.450595 4.338005 14.253445000000003 0
H 21.690025000000002 3.0985750000000003 14.253445000000003 0
H 21.690025000000002 4.338005 13.014015000000002 0
H 20.450595 3.0985750000000003 15.492875 0
H 20.450595 4.338005 16.732305 0
H 21.690025000000002 3.0985750000000003 16.732305 0
H 21.690025000000002 4.338005 15.492875 0
H 20.450595 3.0985750000000003 17.971735 0
H 20.450595 4.338005 19.211165 0
H 21.690025000000002 3.0985750000000003 19.211165 0
H 21.690025000000002 4.338005 17.971735 0
H 20.450595 3.0985750000000003 20.450595 0
H 20.450595 4.338005 21.690025000000002 0
H 21.690025000000002 3.0985750000000003 21.690025000000002 0
H 21.690025000000002 4.338005 20.450595 0
H 20.450595 5.577435 0.619715 0
H 20.450595 6.816865 1.859145 0
H 21.690025000000002 5.577435 1.859145 0
H 21.690025000000002 6.816865 0.619715 0
H 20.450595 5.577435 3.0985750000000003 0
H 20.450595 6.816865 4.338005 0
H 21.690025000000002 5.577435 4.338005 0
H 21.690025000000002 6.816865 3.0985750000000003 0
H 20.450595 5.577435 5.577435 0
H 20.450595 6.816865 6.816865 0
H 21.690025000000002 5.577435 6.816865 0
H 21.690025000000002 6.816865 5.577435 0
H 20.450595 5.577435 8.056295 0
H 20.450595 6.816865 9.295725000000001 0
H 21.690025000000002 5.577435 9.295725000000001 0
H 21.690025000000002 6.816865 8.056295 0
H 20.450595 5.577435 10.535155 0
H 20.450595 6.816865 11.774585000000002 0
H 21.690025000000002 5.577435 11.774585000000002 0
H 21.690025000000002 6.816865 10.535155 0
H 20.450595 5.577435 13.014015000000002 0
H 20.450595 6.816865 14.253445000000003 0
H 21.690025000000002 5.577435 14.253445000000003 0
H 21.690025000000002 6.816865 13.014015000000002 0
H 20.450595 5.577435 15.492875 0
H 20.450595 6.816865 16.732305 0
H 21.690025000000002 5.577435 16.732305 0
H 21.690025000000002 6.816865 15.492875 0
H 20.450595 5.577435 17.971735 0
H 20.450595 6.816865 19.211165 0
H 21.690025000000002 5.577435 19.211165 0
H 21.690025000000002 6.816865 17.971735 0
H 20.450595 5.577435 20.450595 0
H 20.450595 6.816865 21.690025000000002 0
H 21.690025000000002 5.577435 21.690025000000002 0
H 21.690025000000002 6.816865 20.450595 0
H 20.450595 8.056295 0.619715 0
H 20.450595 9.295725000000001 1.859145 0
H 21.690025000000002 8.056295 1.859145 0
H 21.690025000000002 9.295725000000001 0.619715 0
H 20.450595 8.056295 3.0985750000000003 0
H 20.450595 9.295725000000001 4.338005 0
H 21.690025000000002 8.056295 4.338005 0
H 21.690025000000002 9.295725000000001 3.0985750000000003 0
H 20.450595 8.056295 5.577435 0
H 20.450595 9.295725000000001 6.816865 0
H 21.690025000000002 8.056295 6.816865 0
H 21.690025000000002 9.295725000000001 5.577435 0
H 20.450595 8.056295 8.056295 0
H 20.450595 9.295725000000001 9.295725000000001 0
H 21.690025000000002 8.056295 9.295725000000001 0
H 21.690025000000002 9.295725000000001 8.056295 0
H 20.450595 8.056295 10.535155 0
H 20.450595 9.295725000000001 11.774585000000002 0
H 21.690025000000002 8.056295 11.774585000000002 0
H 21.690025000000002 9.295725000000001 10.535155 0
H 20.450595 8.056295 13.014015000000002 0
H 20.450595 9.295725000000001 14.253445000000003 0
H 21.690025000000002 8.056295 14.253445000000003 0
H 21.690025000000002 9.295725000000001 13.014015000000002 0
H 20.450595 8.056295 15.492875 0
H 20.450595 9.295725000000001 16.732305 0
H 21.690025000000002 8.056295 16.732305 0
H 21.690025000000002 9.295725000000001 15.492875 0
H 20.450595 8.056295 17.971735 0
H 20.450595 9.295725000000001 19.211165 0
H 21.690025000000002 8.056295 19.211165 0
H 21.690025000000002 9.295725000000001 17.971735 0
H 20.450595 8.056295 20.450595 0
H 20.450595 9.295725000000001 21.690025000000002 0
H 21.690025000000002 8.056295 21.690025000000002 0
H 21.690025000000002 9.295725000000001 20.450595 0
H 20.450595 10.535155 0.619715 0
H 20.450595 11.774585000000002 1.859145 0
H 21.690025000000002 10.535155 1.859145 0
H 21.690025000000002 11.774585000000002 0.619715 0
H 20.450595 10.535155 3.0985750000000003 0
H 20.450595 11.774585000000002 4.338005 0
H 21.690025000000002 10.535155 4.338005 0
H 21.690025000000002 11.774585000000002 3.0985750000000003 0
H 20.450595 10.535155 5.577435 0
H 20.450595 11.774585000000002 6.816865 0
H 21.690025000000002 10.535155 6.816865 0
H 21.690025000000002 11.774585000000002 5.577435 0
H 20.450595 10.535155 8.056295 0
H 20.450595 11.774585000000002 9.295725000000001 0
H 21.690025000000002 10.535155 9.295725000000001 0
H 21.690025000000002 11.774585000000002 8.056295 0
H 20.450595 10.535155 10.535155 0
H 20.450595 11.774585000000002 11.774585000000002 0
H 21.690025000000002 10.535155 11.774585000000002 0
H 21.690025000000002 11.774585000000002 10.535155 0
H 20.450595 10.535155 13.014015000000002 0
H 20.450595 11.774585000000002 14.253445000000003 0
H 21.690025000000002 10.535155 14.253445000000003 0
H 21.690025000000002 11.774585000000002 13.014015000000002 0
H 20.450595 10.535155 15.492875 0
H 20.450595 11.774585000000002 16.732305 0
H 21.690025000000002 10.535155 16.732305 0
H 21.690025000000002 11.774585000000002 15.492875 0
H 20.450595 10.535155 17.971735 0
H 20.450595 11.774585000000002 19.211165 0
H 21.690025000000002 10.535155 19.211165 0
H 21.690025000000002 11.774585000000002 17.971735 0
H 20.450595 10.535155 20.450595 0
H 20.450595 11.774585000000002 21.690025000000002 0
H 21.690025000000002 10.535155 21.690025000000002 0
H 21.690025000000002 11.774585000000002 20.450595 0
H 20.450595 13.014015000000002 0.619715 0
H 20.450595 14.253445000000003 1.859145 0
H 21.690025000000002 13.014015000000002 1.859145 0
H 21.690025000000002 14.253445000000003 0.619715 0
H 20.450595 13.014015000000002 3.0985750000000003 0
H 20.450595 14.253445000000003 4.338005 0
H 21.690025000000002 13.014015000000002 4.338005 0
H 21.690025000000002 14.253445000000003 3.0985750000000003 0
H 20.450595 13.014015000000002 5.577435 0
H 20.450595 14.253445000000003 6.816865 0
H 21.690025000000002 13.014015000000002 6.816865 0
H 21.690025000000002 14.253445000000003 5.577435 0
H 20.450595 13.014015000000002 8.056295 0
H 20.450595 14.253445000000003 9.295725000000001 0
H 21.690025000000002 13.014015000000002 9.295725000000001 0
H 21.690025000000002 14.253445000000003 8.056295 0
H 20.450595 13.014015000000002 10.535155 0
H 20.450595 14.253445000000003 11.774585000000002 0
H 21.690025000000002 13.014015000000002 11.774585000000002 0
H 21.690025000000002 14.253445000000003 10.535155 0
H 20.450595 13.014015000000002 13.014015000000002 0
H 20.450595 14.253445000000003 14.253445000000003 0
H 21.690025000000002 13.014015000000002 14.253445000000003 0
H 21.690025000000002 14.253445000000003 13.014015000000002 0
H 20.450595 13.014015000000002 15.492875 0
H 20.450595 14.253445000000003 16.732305 0
H 21.690025000000002 13.014015000000002 16.732305 0
H 21.690025000000002 14.253445000000003 15.492875 0
H 20.450595 13.014015000000002 17.971735 0
H 20.450595 14.253445000000003 19.211165 0
H 21.690025000000002 13.014015000000002 19.211165 0
H 21.690025000000002 14.253445000000003 17.971735 0
H 20.450595 13.014015000000002 20.450595 0
H 20.450595 14.253445000000003 21.690025000000002 0
H 21.690025000000002 13.014015000000002 21.690025000000002 0
H 21.690025000000002 14.253445000000003 20.450595 0
H 20.450595 15.492875 0.619715 0
H 20.450595 16.732305 1.859145 0
H 21.690025000000002 15.492875 1.859145 0
H 21.690025000000002 16.732305 0.619715 0
H 20.450595 15.492875 3.0985750000000003 0
H 20.450595 16.732305 4.338005 0
H 21.690025000000002 15.492875 4.338005 0
H 21.690025000000002 16.732305 3.0985750000000003 0
H 20.450595 15.492875 5.577435 0
H 20.450595 16.732305 6.816865 0
H 21.690025000000002 15.492875 6.816865 0
H 21.690025000000002 16.732305 5.577435 0
H 20.450595 15.492875 8.056295 0
H 20.450595 16.732305 9.295725000000001 0
H 21.690025000000002 15.492875 9.295725000000001 0
H 21.690025000000002 16.732305 8.056295 0
H 20.450595 15.492875 10.535155 0
H 20.450595 16.732305 11.774585000000002 0
H 21.690025000000002 15.492875 11.774585000000002 0
H 21.690025000000002 16.732305 10.535155 0
H 20.450595 15.492875 13.014015000000002 0
H 20.450595 16.732305 14.253445000000003 0
H 21.690025000000002 15.492875 14.253445000000003 0
H 21.690025000000002 16.732305 13.014015000000002 0
H 20.450595 15.492875 15.492875 0
H 20.450595 16.732305 16.732305 0
H 21.690025000000002 15.492875 16.732305 0
H 21.690025000000002 16.732305 15.492875 0
H 20.450595 15.492875 17.971735 0
H 20.450595 16.732305 19.211165 0
H 21.690025000000002 15.492875 19.211165 0
H 21.690025000000002 16.732305 17.971735 0
H 20.450595 15.492875 20.450595 0
H 20.450595 16.732305 21.690025000000002 0
H 21.690025000000002 15.492875 21.690025000000002 0
H 21.690025000000002 16.732305 20.450595 0
H 20.450595 17.971735 0.619715 0
H 20.450595 19.211165 1.859145 0
H 21.690025000000002 17.971735 1.859145 0
H 21.690025000000002 19.211165 0.619715 0
H 20.450595 17.971735 3.0985750000000003 0
H 20.450595 19.211165 4.338005 0
H 21.690025000000002 17.971735 4.338005 0
H 21.690025000000002 19.211165 3.0985750000000003 0
H 20.450595 17.971735 5.577435 0
H 20.450595 19.211165 6.816865 0
H 21.690025000000002 17.971735 6.816865 0
H 21.690025000000002 19.211165 5.577435 0
H 20.450595 17.971735 8.056295 0
H 20.450595 19.211165 9.295725000000001 0
H 21.690025000000002 17.971735 9.295725000000001 0
H 21.690025000000002 19.211165 8.056295 0
H 20.450595 17.971735 10.535155 0
H 20.450595 19.211165 11.774585000000002 0
H 21.690025000000002 17.971735 11.774585000000002 0
H 21.690025000000002 19.211165 10.535155 0
H 20.450595 17.971735 13.014015000000002 0
H 20.450595 19.211165 14.253445000000003 0
H 21.690025000000002 17.971735 14.253445000000003 0
H 21.690025000000002 19.211165 13.014015000000002 0
H 20.450595 17.971735 15.492875 0
H 20.450595 19.211165 16.732305 0
H 21.690025000000002 17.971735 16.732305 0
H 21.690025000000002 19.211165 15.492875 0
H 20.450595 17.971735 17.971735 0
H 20.450595 19.211165 19.211165 0
H 21.690025000000002 17.971735 19.211165 0
H 21.690025000000002 19.211165 17.971735 0
H 20.450595 17.971735 20.450595 0
H 20.450595 19.211165 21.690025000000002 0
H 21.690025000000002 17.971735 21.690025000000002 0
H 21.690025000000002 19.211165 20.450595 0
H 20.450595 20.450595 0.619715 0
H 20.450595 21.690025000000002 1.859145 0
H 21.690025000000002 20.450595 1.859145 0
H 21.690025000000002 21.690025000000002 0.619715 0
H 20.450595 20.450595 3.0985750000000003 0
H 20.450595 21.690025000000002 4.338005 0
H 21.690025000000002 20.450595 4.338005 0
H 21.690025000000002 21.690025000000002 3.0985750000000003 0
H 20.450595 20.450595 5.577435 0
H 20.450595 21.690025000000002 6.816865 0
H 21.690025000000002 20.450595 6.816865 0
H 21.690025000000002 21.690025000000002 5.577435 0
H 20.450595 20.450595 8.056295 0
H 20.450595 21.690025000000002 9.295725000000001 0
H 21.690025000000002 20.450595 9.295725000000001 0
H 21.690025000000002 21.690025000000002 8.056295 0
H 20.450595 20.450595 10.535155 0
H 20.450595 21.690025000000002 11.774585000000002 0
H 21.690025000000002 20.450595 11.774585000000002 0
H 21.690025000000002 21.690025000000002 10.535155 0
H 20.450595 20.450595 13.014015000000002 0
H 20.450595 21.690025000000002 14.253445000000003 0
H 21.690025000000002 20.450595 14.253445000000003 0
H 21.690025000000002 21.690025000000002 13.014015000000002 0
H 20.450595 20.450595 15.492875 0
H 20.450595 21.690025000000002 16.732305 0
H 21.690025000000002 20.450595 16.732305 0
H 21.690025000000002 21.690025000000002 15.492875 0
H 20.450595 20.450595 17.971735 0
H 20.450595 21.690025000000002 19.211165 0
H 21.690025000000002 20.450595 19.211165 0
H 21.690025000000002 21.690025000000002 17.971735 0
H 20.450595 20.450595 20.450595 0
H 20.450595 21.690025000000002 21.690025000000002 0
H 21.690025000000002 20.450595 21.690025000000002 0
H 21.690025000000002 21.690025000000002 20.450595 0
O 0.0 0.0 0.0 1
O 1.23943 1.23943 1.23943 1
O 0.0 0.0 2.47886 1
O 1.23943 1.23943 3.71829 1
O 0.0 0.0 4.95772 1
O 1.23943 1.23943 6.197150000000001 1
O 0.0 0.0 7.43658 1
O 1.23943 1.23943 8.67601 1
O 0.0 0.0 9.91544 1
O 1.23943 1.23943 11.15487 1
O 0.0 0.0 12.394300000000001 1
O 1.23943 1.23943 13.633730000000002 1
O 0.0 0.0 14.87316 1
O 1.23943 1.23943 16.11259 1
O 0.0 0.0 17.35202 1
O 1.23943 1.23943 18.59145 1
O 0.0 0.0 19.83088 1
O 1.23943 1.23943 21.07031 1
O 0.0 2.47886 0.0 1
O 1.23943 3.71829 1.23943 1
O 0.0 2.47886 2.47886 1
O 1.23943 3.71829 3.71829 1
O 0.0 2.47886 4.95772 1
O 1.23943 3.71829 6.197150000000001 1
O 0.0 2.47886 7.43658 1
O 1.23943 3.71829 8.67601 1
O 0.0 2.47886 9.91544 1
O 1.23943 3.71829 11.15487 1
O 0.0 2.47886 12.394300000000001 1
O 1.23943 3.71829 13.633730000000002 1
O 0.0 2.47886 14.87316 1
O 1.23943 3.71829 16.11259 1
O 0.0 2.47886 17.35202 1
O 1.23943 3.71829 18.59145 1
O 0.0 2.47886 19.83088 1
O 1.23943 3.71829 21.07031 1
O 0.0 4.95772 0.0 1
O 1.23943 6.197150000000001 1.23943 1
O 0.0 4.95772 2.47886 1
O 1.23943 6.197150000000001 3.71829 1
O 0.0 4.95772 4.95772 1
O 1.23943 6.197150000000001 6.197150000000001 1
O 0.0 4.95772 7.43658 1
O 1.23943 6.197150000000001 8.67601 1
O 0.0 4.95772 9.91544 1
O 1.23943 6.197150000000001 11.15487 1
O 0.0 4.95772 12.394300000000001 1
O 1.23943 6.197150000000001 13.633730000000002 1
O 0.0 4.95772 14.87316 1
O 1.23943 6.197150000000001 16.11259 1
O 0.0 4.95772 17.35202 1
O 1.23943 6.197150000000001 18.59145 1
O 0.0 4.95772 19.83088 1
O 1.23943 6.197150000000001 21.07031 1
O 0.0 7.43658 0.0 1
O 1.23943 8.67601 1.23943 1
O 0.0 7.43658 2.47886 1
O 1.23943 8.67601 3.71829 1
O 0.0 7.43658 4.95772 1
O 1.23943 8.67601 6.197150000000001 1
O 0.0 7.43658 7.43658 1
O 1.23943 8.67601 8.67601 1
O 0.0 7.43658 9.91544 1
O 1.23943 8.67601 11.15487 1
O 0.0 7.43658 12.394300000000001 1
O 1.23943 8.67601 13.633730000000002 1
O 0.0 7.43658 14.87316 1
O 1.23943 8.67601 16.11259 1
O 0.0 7.43658 17.35202 1
O 1.23943 8.67601 18.59145 1
O 0.0 7.43658 19.83088 1
O 1.23943 8.67601 21.07031 1
O 0.0 9.91544 0.0 1
O 1.23943 11.15487 1.23943 1
O 0.0 9.91544 2.47886 1
O 1.23943 11.15487 3.71829 1
O 0.0 9.91544 4.95772 1
O 1.23943 11.15487 6.197150000000001 1
O 0.0 9.91544 7.43658 1
O 1.23943 11.15487 8.67601 1
O 0.0 9.91544 9.91544 1
O 1.23943 11.15487 11.15487 1
O 0.0 9.91544 12.394300000000001 1
O 1.23943 11.15487 13.633730000000002 1
O 0.0 9.91544 14.87316 1
O 1.23943 11.15487 16.11259 1
O 0.0 9.91544 17.35202 1
O 1.23943 11.15487 18.59145 1
O 0.0 9.91544 19.83088 1
O 1.23943 11.15487 21.07031 1
O 0.0 12.394300000000001 0.0 1
O 1.23943 13.633730000000002 1.23943 1
O 0.0 12.394300000000001 2.47886 1
O 1.23943 13.633730000000002 3.71829 1
O 0.0 12.394300000000001 4.95772 1
O 1.23943 13.633730000000002 6.197150000000001 1
O 0.0 12.394300000000001 7.43658 1
O 1.23943 13.633730000000002 8.67601 1
O 0.0 12.394300000000001 9.91544 1
O 1.23943 13.633730000000002 11.15487 1
O 0.0 12.394300000000001 12.394300000000001 1
O 1.23943 13.633730000000002 13.633730000000002 1
O 0.0 12.394300000000001 14.87316 1
O 1.23943 13.633730000000002 16.11259 1
O 0.0 12.394300000000001 17.35202 1
O 1.23943 13.633730000000002 18.59145 1
O 0.0 12.394300000000001 19.83088 1
O 1.23943 13.633730000000002 21.07031 1
O 0.0 14.87316 0.0 1
O 1.23943 16.11259 1.23943 1
O 0.0 14.87316 2.47886 1
O 1.23943 16.11259 3.71829 1
O 0.0 14.87316 4.95772 1
O 1.23943 16.11259 6.197150000000001 1
O 0.0 14.87316 7.43658 1
O 1.23943 16.11259 8.67601 1
O 0.0 14.87316 9.91544 1
O 1.23943 16.11259 11.15487 1
O 0.0 14.87316 12.394300000000001 1
O 1.23943 16.11259 13.633730000000002 1
O 0.0 14.87316 14.87316 1
O 1.23943 16.11259 16.11259 1
O 0.0 14.87316 17.35202 1
O 1.23943 16.11259 18.59145 1
O 0.0 14.87316 19.83088 1
O 1.23943 16.11259 21.07031 1
O 0.0 17.35202 0.0 1
O 1.23943 18.59145 1.23943 1
O 0.0 17.35202 2.47886 1
O 1.23943 18.59145 3.71829 1
O 0.0 17.35202 4.95772 1
O 1.23943 18.59145 6.197150000000001 1
O 0.0 17.35202 7.43658 1
O 1.23943 18.59145 8.67601 1
O 0.0 17.35202 9.91544 1
O 1.23943 18.59145 11.15487 1
O 0.0 17.35202 12.394300000000001 1
O 1.23943 18.59145 13.633730000000002 1
O 0.0 17.35202 14.87316 1
O 1.23943 18.59145 16.11259 1
O 0.0 17.35202 17.35202 1
O 1.23943 18.59145 18.59145 1
O 0.0 17.35202 19.83088 1
O 1.23943 18.59145 21.07031 1
O 0.0 19.83088 0.0 1
O 1.23943 21.07031 1.23943 1
O 0.0 19.83088 2.47886 1
O 1.23943 21.07031 3.71829 1
O 0.0 19.83088 4.95772 1
O 1.23943 21.07031 6.197150000000001 1
O 0.0 19.83088 7.43658 1
O 1.23943 21.07031 8.67601 1
O 0.0 19.83088 9.91544 1
O 1.23943 21.07031 11.15487 1
O 0.0 19.83088 12.394300000000001 1
O 1.23943 21.07031 13.633730000000002 1
O 0.0 19.83088 14.87316 1
O 1.23943 21.07031 16.11259 1
O 0.0 19.83088 17.35202 1
O 1.23943 21.07031 18.59145 1
O 0.0 19.83088 19.83088 1
O 1.23943 21.07031 21.07031 1
O 2.47886 0.0 0.0 1
O 3.71829 1.23943 1.23943 1
O 2.47886 0.0 2.47886 1
O 3.71829 1.23943 3.71829 1
O 2.47886 0.0 4.95772 1
O 3.71829 1.23943 6.197150000000001 1
O 2.47886 0.0 7.43658 1
O 3.71829 1.23943 8.67601 1
O 2.47886 0.0 9.91544 1
O 3.71829 1.23943 11.15487 1
O 2.47886 0.0 12.394300000000001 1
O 3.71829 1.23943 13.633730000000002 1
O 2.47886 0.0 14.87316 1
O 3.71829 1.23943 16.11259 1
O 2.47886 0.0 17.35202 1
O 3.71829 1.23943 18.59145 1
O 2.47886 0.0 19.83088 1
O 3.71829 1.23943 21.07031 1
O 2.47886 2.47886 0.0 1
O 3.71829 3.71829 1.23943 1
O 2.47886 2.47886 2.47886 1
O 3.71829 3.71829 3.71829 1
O 2.47886 2.47886 4.95772 1
O 3.71829 3.71829 6.197150000000001 1
O 2.47886 2.47886 7.43658 1
O 3.71829 3.71829 8.67601 1
O 2.47886 2.47886 9.91544 1
O 3.71829 3.71829 11.15487 1
O 2.47886 2.47886 12.394300000000001 1
O 3.71829 3.71829 13.633730000000002 1
O 2.47886 2.47886 14.87316 1
O 3.71829 3.71829 16.11259 1
O 2.47886 2.47886 17.35202 1
O 3.71829 3.71829 18.59145 1
O 2.47886 2.47886 19.83088 1
O 3.71829 3.71829 21.07031 1
O 2.47886 4.95772 0.0 1
O 3.71829 6.197150000000001 1.23943 1
O 2.47886 4.95772 2.47886 1
O 3.71829 6.197150000000001 3.71829 1
O 2.47886 4.95772 4.95772 1
O 3.71829 6.197150000000001 6.197150000000001 1
O 2.47886 4.95772 7.43658 1
O 3.71829 6.197150000000001 8.67601 1
O 2.47886 4.95772 9.91544 1
O 3.71829 6.197150000000001 11.15487 1
O 2.47886 4.95772 12.394300000000001 1
O 3.71829 6.197150000000001 13.633730000000002 1
O 2.47886 4.95772 14.87316 1
O 3.71829 6.197150000000001 16.11259 1
O 2.47886 4.95772 17.35202 1
O 3.71829 6.197150000000001 18.59145 1
O 2.47886 4.95772 19.83088 1
O 3.71829 6.197150000000001 21.07031 1
O 2.47886 7.43658 0.0 1
O 3.71829 8.67601 1.23943 1
O 2.47886 7.43658 2.47886 1
O 3.71829 8.67601 3.71829 1
O 2.47886 7.43658 4.95772 1
O 3.71829 8.67601 6.197150000000001 1
O 2.47886 7.43658 7.43658 1
O 3.71829 8.67601 8.67601 1
O 2.47886 7.43658 9.91544 1
O 3.71829 8.67601 11.15487 1
O 2.47886 7.43658 12.394300000000001 1
O 3.71829 8.67601 13.633730000000002 1
O 2.47886 7.43658 14.87316 1
O 3.71829 8.67601 16.11259 1
O 2.47886 7.43658 17.35202 1
O 3.71829 8.67601 18.59145 1
O 2.47886 7.43658 19.83088 1
O 3.71829 8.67601 21.07031 1
O 2.47886 9.91544 0.0 1
O 3.71829 11.15487 1.23943 1
O 2.47886 9.91544 2.47886 1
O 3.71829 11.15487 3.71829 1
O 2.47886 9.91544 4.95772 1
O 3.71829 11.15487 6.197150000000001 1
O 2.47886 9.91544 7.43658 1
O 3.71829 11.15487 8.67601 1
O 2.47886 9.91544 9.91544 1
O 3.71829 11.15487 11.15487 1
O 2.47886 9.91544 12.394300000000001 1
O 3.71829 11.15487 13.633730000000002 1
O 2.47886 9.91544 14.87316 1
O 3.71829 11.15487 16.11259 1
O 2.47886 9.91544 17.35202 1
O 3.71829 11.15487 18.59145 1
O 2.47886 9.91544 19.83088 1
O 3.71829 11.15487 21.07031 1
O 2.47886 12.394300000000001 0.0 1
O 3.71829 13.633730000000002 1.23943 1
O 2.47886 12.394300000000001 2.47886 1
O 3.71829 13.633730000000002 3.71829 1
O 2.47886 12.394300000000001 4.95772 1
O 3.71829 13.633730000000002 6.197150000000001 1
O 2.47886 12.394300000000001 7.43658 1
O 3.71829 13.633730000000002 8.67601 1
O 2.47886 12.394300000000001 9.91544 1
O 3.71829 13.633730000000002 11.15487 1
O 2.47886 12.394300000000001 12.394300000000001 1
O 3.71829 13.633730000000002 13.633730000000002 1
O 2.47886 12.394300000000001 14.87316 1
O 3.71829 13.633730000000002 16.11259 1
O 2.47886 12.394300000000001 17.35202 1
O 3.71829 13.633730000000002 18.59145 1
O 2.47886 12.394300000000001 19.83088 1
O 3.71829 13.633730000000002 21.07031 1
O 2.47886 14.87316 0.0 1
O 3.71829 16.11259 1.23943 1
O 2.47886 14.87316 2.47886 1
O 3.71829 16.11259 3.71829 1
O 2.47886 14.87316 4.95772 1
O 3.71829 16.11259 6.197150000000001 1
O 2.47886 14.87316 7.43658 1
O 3.71829 16.11259 8.67601 1
O 2.47886 14.87316 9.91544 1
O 3.71829 16.11259 11.15487 1
O 2.47886 14.87316 12.394300000000001 1
O 3.71829 16.11259 13.633730000000002 1
O 2.47886 14.87316 14.87316 1
O 3.71829 16.11259 16.11259 1
O 2.47886 14.87316 17.35202 1
O 3.71829 16.11259 18.59145 1
O 2.47886 14.87316 19.83088 1
O 3.71829 16.11259 21.07031 1
O 2.47886 17.35202 0.0 1
O 3.71829 18.59145 1.23943 1
O 2.47886 17.35202 2.47886 1
O 3.71829 18.59145 3.71829 1
O 2.47886 17.35202 4.95772 1
O 3.71829 18.59145 6.197150000000001 1
O 2.47886 17.35202 7.43658 1
O 3.71829 18.59145 8.67601 1
O 2.47886 17.35202 9.91544 1
O 3.71829 18.59145 11.15487 1
O 2.47886 17.35202 12.394300000000001 1
O 3.71829 18.59145 13.633730000000002 1
O 2.47886 17.35202 14.87316 1
O 3.71829 18.59145 16.11259 1
O 2.47886 17.35202 17.35202 1
O 3.71829 18.59145 18.59145 1
O 2.47886 17.35202 19.83088 1
O 3.71829 18.59145 21.07031 1
O 2.47886 19.83088 0.0 1
O 3.71829 21.07031 1.23943 1
O 2.47886 19.83088 2.47886 1
O 3.71829 21.07031 3.71829 1
O 2.47886 19.83088 4.95772 1
O 3.71829 21.07031 6.197150000000001 1
O 2.47886 19.83088 7.43658 1
O 3.71829 21.07031 8.67601 1
O 2.47886 19.83088 9.91544 1
O 3.71829 21.07031 11.15487 1
O 2.47886 19.83088 12.394300000000001 1
O 3.71829 21.07031 13.633730000000002 1
O 2.47886 19.83088 14.87316 1
O 3.71829 21.07031 16.11259 1
O 2.47886 19.83088 17.35202 1
O 3.71829 21.07031 18.59145 1
O 2.47886 19.83088 19.83088 1
O 3.71829 21.07031 21.07031 1
O 4.95772 0.0 0.0 1
O 6.197150000000001 1.23943 1.23943 1
O 4.95772 0.0 2.47886 1
O 6.197150000000001 1.23943 3.71829 1
O 4.95772 0.0 4.95772 1
O 6.197150000000001 1.23943 6.197150000000001 1
O 4.95772 0.0 7.43658 1
O 6.197150000000001 1.23943 8.67601 1
O 4.95772 0.0 9.91544 1
O 6.197150000000001 1.23943 11.15487 1
O 4.95772 0.0 12.394300000000001 1
O 6.197150000000001 1.23943 13.633730000000002 1
O 4.95772 0.0 14.87316 1
O 6.197150000000001 1.23943 16.11259 1
O 4.95772 0.0 17.35202 1
O 6.197150000000001 1.23943 18.59145 1
O 4.95772 0.0 19.83088 1
O 6.197150000000001 1.23943 21.07031 1
O 4.95772 2.47886 0.0 1
O 6.197150000000001 3.71829 1.23943 1
O 4.95772 2.47886 2.47886 1
O 6.197150000000001 3.71829 3.71829 1
O 4.95772 2.47886 4.95772 1
O 6.197150000000001 3.71829 6.197150000000001 1
O 4.95772 2.47886 7.43658 1
O 6.197150000000001 3.71829 8.67601 1
O 4.95772 2.47886 9.91544 1
O 6.197150000000001 3.71829 11.15487 1
O 4.95772 2.47886 12.394300000000001 1
O 6.197150000000001 3.71829 13.633730000000002 1
O 4.95772 2.47886 14.87316 1
O 6.197150000000001 3.71829 16.11259 1
O 4.95772 2.47886 17.35202 1
O 6.197150000000001 3.71829 18.59145 1
O 4.95772 2.47886 19.83088 1
O 6.197150000000001 3.71829 21.07031 1
O 4.95772 4.95772 0.0 1
O 6.197150000000001 6.197150000000001 1.23943 1
O 4.95772 4.95772 2.47886 1
O 6.197150000000001 6.197150000000001 3.71829 1
O 4.95772 4.95772 4.95772 1
O 6.197150000000001 6.197150000000001 6.197150000000001 1
O 4.95772 4.95772 7.43658 1
O 6.197150000000001 6.197150000000001 8.67601 1
O 4.95772 4.95772 9.91544 1
O 6.197150000000001 6.197150000000001 11.15487 1
O 4.95772 4.95772 12.394300000000001 1
O 6.197150000000001 6.197150000000001 13.633730000000002 1
O 4.95772 4.95772 14.87316 1
O 6.197150000000001 6.197150000000001 16.11259 1
O 4.95772 4.95772 17.35202 1
O 6.197150000000001 6.197150000000001 18.59145 1
O 4.95772 4.95772 19.83088 1
O 6.197150000000001 6.197150000000001 21.07031 1
O 4.95772 7.43658 0.0 1
O 6.197150000000001 8.67601 1.23943 1
O 4.95772 7.43658 2.47886 1
O 6.197150000000001 8.67601 3.71829 1
O 4.95772 7.43658 4.95772 1
O 6.197150000000001 8.67601 6.197150000000001 1
O 4.95772 7.43658 7.43658 1
O 6.197150000000001 8.67601 8.67601 1
O 4.95772 7.43658 9.91544 1
O 6.197150000000001 8.67601 11.15487 1
O 4.95772 7.43658 12.394300000000001 1
O 6.197150000000001 8.67601 13.633730000000002 1
O 4.95772 7.43658 14.87316 1
O 6.197150000000001 8.67601 16.11259 1
O 4.95772 7.43658 17.35202 1
O 6.197150000000001 8.67601 18.59145 1
O 4.95772 7.43658 19.83088 1
O 6.197150000000001 8.67601 21.07031 1
O 4.95772 9.91544 0.0 1
O 6.197150000000001 11.15487 1.23943 1
O 4.95772 9.91544 2.47886 1
O 6.197150000000001 11.15487 3.71829 1
O 4.95772 9.91544 4.95772 1
O 6.197150000000001 11.15487 6.197150000000001 1
O 4.95772 9.91544 7.43658 1
O 6.197150000000001 11.15487 8.67601 1
O 4.95772 9.91544 9.91544 1
O 6.197150000000001 11.15487 11.15487 1
O 4.95772 9.91544 12.394300000000001 1
O 6.197150000000001 11.15487 13.633730000000002 1
O 4.95772 9.91544 14.87316 1
O 6.197150000000001 11.15487 16.11259 1
O 4.95772 9.91544 17.35202 1
O 6.197150000000001 11.15487 18.59145 1
O 4.95772 9.91544 19.83088 1
O 6.197150000000001 11.15487 21.07031 1
O 4.95772 12.394300000000001 0.0 1
O 6.197150000000001 13.633730000000002 1.23943 1
O 4.95772 12.394300000000001 2.47886 1
O 6.197150000000001 13.633730000000002 3.71829 1
O 4.95772 12.394300000000001 4.95772 1
O 6.197150000000001 13.633730000000002 6.197150000000001 1
O 4.95772 12.394300000000001 7.43658 1
O 6.197150000000001 13.633730000000002 8.67601 1
O 4.95772 12.394300000000001 9.91544 1
O 6.197150000000001 13.633730000000002 11.15487 1
O 4.95772 12.394300000000001 12.394300000000001 1
O 6.197150000000001 13.633730000000002 13.633730000000002 1
O 4.95772 12.394300000000001 14.87316 1
O 6.197150000000001 13.633730000000002 16.11259 1
O 4.95772 12.394300000000001 17.35202 1
O 6.197150000000001 13.633730000000002 18.59145 1
O 4.95772 12.394300000000001 19.83088 1
O 6.197150000000001 13.633730000000002 21.07031 1
O 4.95772 14.87316 0.0 1
O 6.197150000000001 16.11259 1.23943 1
O 4.95772 14.87316 2.47886 1
O 6.197150000000001 16.11259 3.71829 1
O 4.95772 14.87316 4.95772 1
O 6.197150000000001 16.11259 6.197150000000001 1
O 4.95772 14.87316 7.43658 1
O 6.197150000000001 16.11259 8.67601 1
O 4.95772 14.87316 9.91544 1
O 6.197150000000001 16.11259 11.15487 1
O 4.95772 14.87316 12.394300000000001 1
O 6.197150000000001 16.11259 13.633730000000002 1
O 4.95772 14.87316 14.87316 1
O 6.197150000000001 16.11259 16.11259 1
O 4.95772 14.87316 17.35202 1
O 6.197150000000001 16.11259 18.59145 1
O 4.95772 14.87316 19.83088 1
O 6.197150000000001 16.11259 21.07031 1
O 4.95772 17.35202 0.0 1
O 6.197150000000001 18.59145 1.23943 1
O 4.95772 17.35202 2.47886 1
O 6.197150000000001 18.59145 3.71829 1
O 4.95772 17.35202 4.95772 1
O 6.197150000000001 18.59145 6.197150000000001 1
O 4.95772 17.35202 7.43658 1
O 6.197150000000001 18.59145 8.67601 1
O 4.95772 17.35202 9.91544 1
O 6.197150000000001 18.59145 11.15487 1
O 4.95772 17.35202 12.394300000000001 1
O 6.197150000000001 18.59145 13.633730000000002 1
O 4.95772 17.35202 14.87316 1
O 6.197150000000001 18.59145 16.11259 1
O 4.95772 17.35202 17.35202 1
O 6.197150000000001 18.59145 18.59145 1
O 4.95772 17.35202 19.83088 1
O 6.197150000000001 18.59145 21.07031 1
O 4.95772 19.83088 0.0 1
O 6.197150000000001 21.07031 1.23943 1
O 4.95772 19.83088 2.47886 1
O 6.197150000000001 21.07031 3.71829 1
O 4.95772 19.83088 4.95772 1
O 6.197150000000001 21.07031 6.197150000000001 1
O 4.95772 19.83088 7.43658 1
O 6.197150000000001 21.07031 8.67601 1
O 4.95772 19.83088 9.91544 1
O 6.197150000000001 21.07031 11.15487 1
O 4.95772 19.83088 12.394300000000001 1
O 6.197150000000001 21.07031 13.633730000000002 1
O 4.95772 19.83088 14.87316 1
O 6.197150000000001 21.07031 16.11259 1
O 4.95772 19.83088 17.35202 1
O 6.197150000000001 21.07031 18.59145 1
O 4.95772 19.83088 19.83088 1
O 6.197150000000001 21.07031 21.07031 1
O 7.43658 0.0 0.0 1
O 8.67601 1.23943 1.23943 1
O 7.43658 0.0 2.47886 1
O 8.67601 1.23943 3.71829 1
O 7.43658 0.0 4.95772 1
O 8.67601 1.23943 6.197150000000001 1
O 7.43658 0.0 7.43658 1
O 8.67601 1.23943 8.67601 1
O 7.43658 0.0 9.91544 1
O 8.67601 1.23943 11.15487 1
O 7.43658 0.0 12.394300000000001 1
O 8.67601 1.23943 13.633730000000002 1
O 7.43658 0.0 14.87316 1
O 8.67601 1.23943 16.11259 1
O 7.43658 0.0 17.35202 1
O 8.67601 1.23943 18.59145 1
O 7.43658 0.0 19.83088 1
O 8.67601 1.23943 21.07031 1
O 7.43658 2.47886 0.0 1
O 8.67601 3.71829 1.23943 1
O 7.43658 2.47886 2.47886 1
O 8.67601 3.71829 3.71829 1
O 7.43658 2.47886 4.95772 1
O 8.67601 3.71829 6.197150000000001 1
O 7.43658 2.47886 7.43658 1
O 8.67601 3.71829 8.67601 1
O 7.43658 2.47886 9.91544 1
O 8.67601 3.71829 11.15487 1
O 7.43658 2.47886 12.394300000000001 1
O 8.67601 3.71829 13.633730000000002 1
O 7.43658 2.47886 14.87316 1
O 8.67601 3.71829 16.11259 1
O 7.43658 2.47886 17.35202 1
O 8.67601 3.71829 18.59145 1
O 7.43658 2.47886 19.83088 1
O 8.67601 3.71829 21.07031 1
O 7.43658 4.95772 0.0 1
O 8.67601 6.197150000000001 1.23943 1
O 7.43658 4.95772 2.47886 1
O 8.67601 6.197150000000001 3.71829 1
O 7.43658 4.95772 4.95772 1
O 8.67601 6.197150000000001 6.197150000000001 1
O 7.43658 4.95772 7.43658 1
O 8.67601 6.197150000000001 8.67601 1
O 7.43658 4.95772 9.91544 1
O 8.67601 6.197150000000001 11.15487 1
O 7.43658 4.95772 12.394300000000001 1
O 8.67601 6.197150000000001 13.633730000000002 1
O 7.43658 4.95772 14.87316 1
O 8.67601 6.197150000000001 16.11259 1
O 7.43658 4.95772 17.35202 1
O 8.67601 6.197150000000001 18.59145 1
O 7.43658 4.95772 19.83088 1
O 8.67601 6.197150000000001 21.07031 1
O 7.43658 7.43658 0.0 1
O 8.67601 8.67601 1.23943 1
O 7.43658 7.43658 2.47886 1
O 8.67601 8.67601 3.71829 1
O 7.43658 7.43658 4.95772 1
O 8.67601 8.67601 6.197150000000001 1
O 7.43658 7.43658 7.43658 1
O 8.67601 8.67601 8.67601 1
O 7.43658 7.43658 9.91544 1
O 8.67601 8.67601 11.15487 1
O 7.43658 7.43658 12.394300000000001 1
O 8.67601 8.67601 13.633730000000002 1
O 7.43658 7.43658 14.87316 1
O 8.67601 8.67601 16.11259 1
O 7.43658 7.43658 17.35202 1
O 8.67601 8.67601 18.59145 1
O 7.43658 7.43658 19.83088 1
O 8.67601 8.67601 21.07031 1
O 7.43658 9.91544 0.0 1
O 8.67601 11.15487 1.23943 1
O 7.43658 9.91544 2.47886 1
O 8.67601 11.15487 3.71829 1
O 7.43658 9.91544 4.95772 1
O 8.67601 11.15487 6.197150000000001 1
O 7.43658 9.91544 7.43658 1
O 8.67601 11.15487 8.67601 1
O 7.43658 9.91544 9.91544 1
O 8.67601 11.15487 11.15487 1
O 7.43658 9.91544 12.394300000000001 1
O 8.67601 11.15487 13.633730000000002 1
O 7.43658 9.91544 14.87316 1
O 8.67601 11.15487 16.11259 1
O 7.43658 9.91544 17.35202 1
O 8.67601 11.15487 18.59145 1
O 7.43658 9.91544 19.83088 1
O 8.67601 11.15487 21.07031 1
O 7.43658 12.394300000000001 0.0 1
O 8.67601 13.633730000000002 1.23943 1
O 7.43658 12.394300000000001 2.47886 1
O 8.67601 13.633730000000002 3.71829 1
O 7.43658 12.394300000000001 4.95772 1
O 8.67601 13.633730000000002 6.197150000000001 1
O 7.43658 12.394300000000001 7.43658 1
O 8.67601 13.633730000000002 8.67601 1
O 7.43658 12.394300000000001 9.91544 1
O 8.67601 13.633730000000002 11.15487 1
O 7.43658 12.394300000000001 12.394300000000001 1
O 8.67601 13.633730000000002 13.633730000000002 1
O 7.43658 12.394300000000001 14.87316 1
O 8.67601 13.633730000000002 16.11259 1
O 7.43658 12.394300000000001 17.35202 1
O 8.67601 13.633730000000002 18.59145 1
O 7.43658 12.394300000000001 19.83088 1
O 8.67601 13.633730000000002 21.07031 1
O 7.43658 14.87316 0.0 1
O 8.67601 16.11259 1.23943 1
O 7.43658 14.87316 2.47886 1
O 8.67601 16.11259 3.71829 1
O 7.43658 14.87316 4.95772 1
O 8.67601 16.11259 6.197150000000001 1
O 7.43658 14.87316 7.43658 1
O 8.67601 16.11259 8.67601 1
O 7.43658 14.87316 9.91544 1
O 8.67601 16.11259 11.15487 1
O 7.43658 14.87316 12.394300000000001 1
O 8.67601 16.11259 13.633730000000002 1
O 7.43658 14.87316 14.87316 1
O 8.67601 16.11259 16.11259 1
O 7.43658 14.87316 17.35202 1
O 8.67601 16.11259 18.59145 1
O 7.43658 14.87316 19.83088 1
O 8.67601 16.11259 21.07031 1
O 7.43658 17.35202 0.0 1
O 8.67601 18.59145 1.23943 1
O 7.43658 17.35202 2.47886 1
O 8.67601 18.59145 3.71829 1
O 7.43658 17.35202 4.95772 1
O 8.67601 18.59145 6.197150000000001 1
O 7.43658 17.35202 7.43658 1
O 8.67601 18.59145 8.67601 1
O 7.43658 17.35202 9.91544 1
O 8.67601 18.59145 11.15487 1
O 7.43658 17.35202 12.394300000000001 1
O 8.67601 18.59145 13.633730000000002 1
O 7.43658 17.35202 14.87316 1
O 8.67601 18.59145 16.11259 1
O 7.43658 17.35202 17.35202 1
O 8.67601 18.59145 18.59145 1
O 7.43658 17.35202 19.83088 1
O 8.67601 18.59145 21.07031 1
O 7.43658 19.83088 0.0 1
O 8.67601 21.07031 1.23943 1
O 7.43658 19.83088 2.47886 1
O 8.67601 21.07031 3.71829 1
O 7.43658 19.83088 4.95772 1
O 8.67601 21.07031 6.197150000000001 1
O 7.43658 19.83088 7.43658 1
O 8.67601 21.07031 8.67601 1
O 7.43658 19.83088 9.91544 1
O 8.67601 21.07031 11.15487 1
O 7.43658 19.83088 12.394300000000001 1
O 8.67601 21.07031 13.633730000000002 1
O 7.43658 19.83088 14.87316 1
O 8.67601 21.07031 16.11259 1
O 7.43658 19.83088 17.35202 1
O 8.67601 21.07031 18.59145 1
O 7.43658 19.83088 19.83088 1
O 8.67601 21.07031 21.07031 1
O 9.91544 0.0 0.0 1
O 11.15487 1.23943 1.23943 1
O 9.91544 0.0 2.47886 1
O 11.15487 1.23943 3.71829 1
O 9.91544 0.0 4.95772 1
O 11.15487 1.23943 6.197150000000001 1
O 9.91544 0.0 7.43658 1
O 11.15487 1.23943 8.67601 1
O 9.91544 0.0 9.91544 1
O 11.15487 1.23943 11.15487 1
O 9.91544 0.0 12.394300000000001 1
O 11.15487 1.23943 13.633730000000002 1
O 9.91544 0.0 14.87316 1
O 11.15487 1.23943 16.11259 1
O 9.91544 0.0 17.35202 1
O 11.15487 1.23943 18.59145 1
O 9.91544 0.0 19.83088 1
O 11.15487 1.23943 21.07031 1
O 9.91544 2.47886 0.0 1
O 11.15487 3.71829 1.23943 1
O 9.91544 2.47886 2.47886 1
O 11.15487 3.71829 3.71829 1
O 9.91544 2.47886 4.95772 1
O 11.15487 3.71829 6.197150000000001 1
O 9.91544 2.47886 7.43658 1
O 11.15487 3.71829 8.67601 1
O 9.91544 2.47886 9.91544 1
O 11.15487 3.71829 11.15487 1
O 9.91544 2.47886 12.394300000000001 1
O 11.15487 3.71829 13.633730000000002 1
O 9.91544 2.47886 14.87316 1
O 11.15487 3.71829 16.11259 1
O 9.91544 2.47886 17.35202 1
O 11.15487 3.71829 18.59145 1
O 9.91544 2.47886 19.83088 1
O 11.15487 3.71829 21.07031 1
O 9.91544 4.95772 0.0 1
O 11.15487 6.197150000000001 1.23943 1
O 9.91544 4.95772 2.47886 1
O 11.15487 6.197150000000001 3.71829 1
O 9.91544 4.95772 4.95772 1
O 11.15487 6.197150000000001 6.197150000000001 1
O 9.91544 4.95772 7.43658 1
O 11.15487 6.197150000000001 8.67601 1
O 9.91544 4.95772 9.91544 1
O 11.15487 6.197150000000001 11.15487 1
O 9.91544 4.95772 12.394300000000001 1
O 11.15487 6.197150000000001 13.633730000000002 1
O 9.91544 4.95772 14.87316 1
O 11.15487 6.197150000000001 16.11259 1
O 9.91544 4.95772 17.35202 1
O 11.15487 6.197150000000001 18.59145 1
O 9.91544 4.95772 19.83088 1
O 11.15487 6.197150000000001 21.07031 1
O 9.91544 7.43658 0.0 1
O 11.15487 8.67601 1.23943 1
O 9.91544 7.43658 2.47886 1
O 11.15487 8.67601 3.71829 1
O 9.91544 7.43658 4.95772 1
O 11.15487 8.67601 6.197150000000001 1
O 9.91544 7.43658 7.43658 1
O 11.15487 8.67601 8.67601 1
O 9.91544 7.43658 9.91544 1
O 11.15487 8.67601 11.15487 1
O 9.91544 7.43658 12.394300000000001 1
O 11.15487 8.67601 13.633730000000002 1
O 9.91544 7.43658 14.87316 1
O 11.15487 8.67601 16.11259 1
O 9.91544 7.43658 17.35202 1
O 11.15487 8.67601 18.59145 1
O 9.91544 7.43658 19.83088 1
O 11.15487 8.67601 21.07031 1
O 9.91544 9.91544 0.0 1
O 11.15487 11.15487 1.23943 1
O 9.91544 9.91544 2.47886 1
O 11.15487 11.15487 3.71829 1
O 9.91544 9.91544 4.95772 1
O 11.15487 11.15487 6.197150000000001 1
O 9.91544 9.91544 7.43658 1
O 11.15487 11.15487 8.67601 1
O 9.91544 9.91544 9.91544 1
O 11.15487 11.15487 11.15487 1
O 9.91544 9.91544 12.394300000000001 1
O 11.15487 11.15487 13.633730000000002 1
O 9.91544 9.91544 14.87316 1
O 11.15487 11.15487 16.11259 1
O 9.91544 9.91544 17.35202 1
O 11.15487 11.15487 18.59145 1
O 9.91544 9.91544 19.83088 1
O 11.15487 11.15487 21.07031 1
O 9.91544 12.394300000000001 0.0 1
O 11.15487 13.633730000000002 1.23943 1
O 9.91544 12.394300000000001 2.47886 1
O 11.15487 13.633730000000002 3.71829 1
O 9.91544 12.394300000000001 4.95772 1
O 11.15487 13.633730000000002 6.197150000000001 1
O 9.91544 12.394300000000001 7.43658 1
O 11.15487 13.633730000000002 8.67601 1
O 9.91544 12.394300000000001 9.91544 1
O 11.15487 13.633730000000002 11.15487 1
O 9.91544 12.394300000000001 12.394300000000001 1
O 11.15487 13.633730000000002 13.633730000000002 1
O 9.91544 12.394300000000001 14.87316 1
O 11.15487 13.633730000000002 16.11259 1
O 9.91544 12.394300000000001 17.35202 1
O 11.15487 13.633730000000002 18.59145 1
O 9.91544 12.394300000000001 19.83088 1
O 11.15487 13.633730000000002 21.07031 1
O 9.91544 14.87316 0.0 1
O 11.15487 16.11259 1.23943 1
O 9.91544 14.87316 2.47886 1
O 11.15487 16.11259 3.71829 1
O 9.91544 14.87316 4.95772 1
O 11.15487 16.11259 6.197150000000001 1
O 9.91544 14.87316 7.43658 1
O 11.15487 16.11259 8.67601 1
O 9.91544 14.87316 9.91544 1
O 11.15487 16.11259 11.15487 1
O 9.91544 14.87316 12.394300000000001 1
O 11.15487 16.11259 13.633730000000002 1
O 9.91544 14.87316 14.87316 1
O 11.15487 16.11259 16.11259 1
O 9.91544 14.87316 17.35202 1
O 11.15487 16.11259 18.59145 1
O 9.91544 14.87316 19.83088 1
O 11.15487 16.11259 21.07031 1
O 9.91544 17.35202 0.0 1
O 11.15487 18.59145 1.23943 1
O 9.91544 17.35202 2.47886 1
O 11.15487 18.59145 3.71829 1
O 9.91544 17.35202 4.95772 1
O 11.15487 18.59145 6.197150000000001 1
O 9.91544 17.35202 7.43658 1
O 11.15487 18.59145 8.67601 1
O 9.91544 17.35202 9.91544 1
O 11.15487 18.59145 11.15487 1
O 9.91544 17.35202 12.394300000000001 1
O 11.15487 18.59145 13.633730000000002 1
O 9.91544 17.35202 14.87316 1
O 11.15487 18.59145 16.11259 1
O 9.91544 17.35202 17.35202 1
O 11.15487 18.59145 18.59145 1
O 9.91544 17.35202 19.83088 1
O 11.15487 18.59145 21.07031 1
O 9.91544 19.83088 0.0 1
O 11.15487 21.07031 1.23943 1
O 9.91544 19.83088 2.47886 1
O 11.15487 21.07031 3.71829 1
O 9.91544 19.83088 4.95772 1
O 11.15487 21.07031 6.197150000000001 1
O 9.91544 19.83088 7.43658 1
O 11.15487 21.07031 8.67601 1
O 9.91544 19.83088 9.91544 1
O 11.15487 21.07031 11.15487 1
O 9.91544 19.83088 12.394300000000001 1
O 11.15487 21.07031 13.633730000000002 1
O 9.91544 19.83088 14.87316 1
O 11.15487 21.07031 16.11259 1
O 9.91544 19.83088 17.35202 1
O 11.15487 21.07031 18.59145 1
O 9.91544 19.83088 19.83088 1
O 11.15487 21.07031 21.07031 1
O 12.394300000000001 0.0 0.0 1
O 13.633730000000002 1.23943 1.23943 1
O 12.394300000000001 0.0 2.47886 1
O 13.633730000000002 1.23943 3.71829 1
O 12.394300000000001 0.0 4.95772 1
O 13.633730000000002 1.23943 6.197150000000001 1
O 12.394300000000001 0.0 7.43658 1
O 13.633730000000002 1.23943 8.67601 1
O 12.394300000000001 0.0 9.91544 1
O 13.633730000000002 1.23943 11.15487 1
O 12.394300000000001 0.0 12.394300000000001 1
O 13.633730000000002 1.23943 13.633730000000002 1
O 12.394300000000001 0.0 14.87316 1
O 13.633730000000002 1.23943 16.11259 1
O 12.394300000000001 0.0 17.35202 1
O 13.633730000000002 1.23943 18.59145 1
O 12.394300000000001 0.0 19.83088 1
O 13.633730000000002 1.23943 21.07031 1
O 12.394300000000001 2.47886 0.0 1
O 13.633730000000002 3.71829 1.23943 1
O 12.394300000000001 2.47886 2.47886 1
O 13.633730000000002 3.71829 3.71829 1
O 12.394300000000001 2.47886 4.95772 1
O 13.633730000000002 3.71829 6.197150000000001 1
O 12.394300000000001 2.47886 7.43658 1
O 13.633730000000002 3.71829 8.67601 1
O 12.394300000000001 2.47886 9.91544 1
O 13.633730000000002 3.71829 11.15487 1
O 12.394300000000001 2.47886 12.394300000000001 1
O 13.633730000000002 3.71829 13.633730000000002 1
O 12.394300000000001 2.47886 14.87316 1
O 13.633730000000002 3.71829 16.11259 1
O 12.394300000000001 2.47886 17.35202 1
O 13.633730000000002 3.71829 18.59145 1
O 12.394300000000001 2.47886 19.83088 1
O 13.633730000000002 3.71829 21.07031 1
O 12.394300000000001 4.95772 0.0 1
O 13.633730000000002 6.197150000000001 1.23943 1
O 12.394300000000001 4.95772 2.47886 1
O 13.633730000000002 6.197150000000001 3.71829 1
O 12.394300000000001 4.95772 4.95772 1
O 13.633730000000002 6.197150000000001 6.197150000000001 1
O 12.394300000000001 4.95772 7.43658 1
O 13.633730000000002 6.197150000000001 8.67601 1
O 12.394300000000001 4.95772 9.91544 1
O 13.633730000000002 6.197150000000001 11.15487 1
O 12.394300000000001 4.95772 12.394300000000001 1
O 13.633730000000002 6.197150000000001 13.633730000000002 1
O 12.394300000000001 4.95772 14.87316 1
O 13.633730000000002 6.197150000000001 16.11259 1
O 12.394300000000001 4.95772 17.35202 1
O 13.633730000000002 6.197150000000001 18.59145 1
O 12.394300000000001 4.95772 19.83088 1
O 13.633730000000002 6.197150000000001 21.07031 1
O 12.394300000000001 7.43658 0.0 1
O 13.633730000000002 8.67601 1.23943 1
O 12.394300000000001 7.43658 2.47886 1
O 13.633730000000002 8.67601 3.71829 1
O 12.394300000000001 7.43658 4.95772 1
O 13.633730000000002 8.67601 6.197150000000001 1
O 12.394300000000001 7.43658 7.43658 1
O 13.633730000000002 8.67601 8.67601 1
O 12.394300000000001 7.43658 9.91544 1
O 13.633730000000002 8.67601 11.15487 1
O 12.394300000000001 7.43658 12.394300000000001 1
O 13.633730000000002 8.67601 13.633730000000002 1
O 12.394300000000001 7.43658 14.87316 1
O 13.633730000000002 8.67601 16.11259 1
O 12.394300000000001 7.43658 17.35202 1
O 13.633730000000002 8.67601 18.59145 1
O 12.394300000000001 7.43658 19.83088 1
O 13.633730000000002 8.67601 21.07031 1
O 12.394300000000001 9.91544 0.0 1
O 13.633730000000002 11.15487 1.23943 1
O 12.394300000000001 9.91544 2.47886 1
O 13.633730000000002 11.15487 3.71829 1
O 12.394300000000001 9.91544 4.95772 1
O 13.633730000000002 11.15487 6.197150000000001 1
O 12.394300000000001 9.91544 7.43658 1
O 13.633730000000002 11.15487 8.67601 1
O 12.394300000000001 9.91544 9.91544 1
O 13.633730000000002 11.15487 11.15487 1
O 12.394300000000001 9.91544 12.394300000000001 1
O 13.633730000000002 11.15487 13.633730000000002 1
O 12.394300000000001 9.91544 14.87316 1
O 13.633730000000002 11.15487 16.11259 1
O 12.394300000000001 9.91544 17.35202 1
O 13.633730000000002 11.15487 18.59145 1
O 12.394300000000001 9.91544 19.83088 1
O 13.633730000000002 11.15487 21.07031 1
O 12.394300000000001 12.394300000000001 0.0 1
O 13.633730000000002 13.633730000000002 1.23943 1
O 12.394300000000001 12.394300000000001 2.47886 1
O 13.633730000000002 13.633730000000002 3.71829 1
O 12.394300000000001 12.394300000000001 4.95772 1
O 13.633730000000002 13.633730000000002 6.197150000000001 1
O 12.394300000000001 12.394300000000001 7.43658 1
O 13.633730000000002 13.633730000000002 8.67601 1
O 12.394300000000001 12.394300000000001 9.91544 1
O 13.633730000000002 13.633730000000002 11.15487 1
O 12.394300000000001 12.394300000000001 12.394300000000001 1
O 13.633730000000002 13.633730000000002 13.633730000000002 1
O 12.394300000000001 12.394300000000001 14.87316 1
O 13.633730000000002 13.633730000000002 16.11259 1
O 12.394300000000001 12.394300000000001 17.35202 1
O 13.633730000000002 13.633730000000002 18.59145 1
O 12.394300000000001 12.394300000000001 19.83088 1
O 13.633730000000002 13.633730000000002 21.07031 1
O 12.394300000000001 14.87316 0.0 1
O 13.633730000000002 16.11259 1.23943 1
O 12.394300000000001 14.87316 2.47886 1
O 13.633730000000002 16.11259 3.71829 1
O 12.394300000000001 14.87316 4.95772 1
O 13.633730000000002 16.11259 6.197150000000001 1
O 12.394300000000001 14.87316 7.43658 1
O 13.633730000000002 16.11259 8.67601 1
O 12.394300000000001 14.87316 9.91544 1
O 13.633730000000002 16.11259 11.15487 1
O 12.394300000000001 14.87316 12.394300000000001 1
O 13.633730000000002 16.11259 13.633730000000002 1
O 12.394300000000001 14.87316 14.87316 1
O 13.633730000000002 16.11259 16.11259 1
O 12.394300000000001 14.87316 17.35202 1
O 13.633730000000002 16.11259 18.59145 1
O 12.394300000000001 14.87316 19.83088 1
O 13.633730000000002 16.11259 21.07031 1
O 12.394300000000001 17.35202 0.0 1
O 13.633730000000002 18.59145 1.23943 1
O 12.394300000000001 17.35202 2.47886 1
O 13.633730000000002 18.59145 3.71829 1
O 12.394300000000001 17.35202 4.95772 1
O 13.633730000000002 18.59145 6.197150000000001 1
O 12.394300000000001 17.35202 7.43658 1
O 13.633730000000002 18.59145 8.67601 1
O 12.394300000000001 17.35202 9.91544 1
O 13.633730000000002 18.59145 11.15487 1
O 12.394300000000001 17.35202 12.394300000000001 1
O 13.633730000000002 18.59145 13.633730000000002 1
O 12.394300000000001 17.35202 14.87316 1
O 13.633730000000002 18.59145 16.11259 1
O 12.394300000000001 17.35202 17.35202 1
O 13.633730000000002 18.59145 18.59145 1
O 12.394300000000001 17.35202 19.83088 1
O 13.633730000000002 18.59145 21.07031 1
O 12.394300000000001 19.83088 0.0 1
O 13.633730000000002 21.07031 1.23943 1
O 12.394300000000001 19.83088 2.47886 1
O 13.633730000000002 21.07031 3.71829 1
O 12.394300000000001 19.83088 4.95772 1
O 13.633730000000002 21.07031 6.197150000000001 1
O 12.394300000000001 19.83088 7.43658 1
O 13.633730000000002 21.07031 8.67601 1
O 12.394300000000001 19.83088 9.91544 1
O 13.633730000000002 21.07031 11.15487 1
O 12.394300000000001 19.83088 12.394300000000001 1
O 13.633730000000002 21.07031 13.633730000000002 1
O 12.394300000000001 19.83088 14.87316 1
O 13.633730000000002 21.07031 16.11259 1
O 12.394300000000001 19.83088 17.35202 1
O 13.633730000000002 21.07031 18.59145 1
O 12.394300000000001 19.83088 19.83088 1
O 13.633730000000002 21.07031 21.07031 1
O 14.87316 0.0 0.0 1
O 16.11259 1.23943 1.23943 1
O 14.87316 0.0 2.47886 1
O 16.11259 1.23943 3.71829 1
O 14.87316 0.0 4.95772 1
O 16.11259 1.23943 6.197150000000001 1
O 14.87316 0.0 7.43658 1
O 16.11259 1.23943 8.67601 1
O 14.87316 0.0 9.91544 1
O 16.11259 1.23943 11.15487 1
O 14.87316 0.0 12.394300000000001 1
O 16.11259 1.23943 13.633730000000002 1
O 14.87316 0.0 14.87316 1
O 16.11259 1.23943 16.11259 1
O 14.87316 0.0 17.35202 1
O 16.11259 1.23943 18.59145 1
O 14.87316 0.0 19.83088 1
O 16.11259 1.23943 21.07031 1
O 14.87316 2.47886 0.0 1
O 16.11259 3.71829 1.23943 1
O 14.87316 2.47886 2.47886 1
O 16.11259 3.71829 3.71829 1
O 14.87316 2.47886 4.95772 1
O 16.11259 3.71829 6.197150000000001 1
O 14.87316 2.47886 7.43658 1
O 16.11259 3.71829 8.67601 1
O 14.87316 2.47886 9.91544 1
O 16.11259 3.71829 11.15487 1
O 14.87316 2.47886 12.394300000000001 1
O 16.11259 3.71829 13.633730000000002 1
O 14.87316 2.47886 14.87316 1
O 16.11259 3.71829 16.11259 1
O 14.87316 2.47886 17.35202 1
O 16.11259 3.71829 18.59145 1
O 14.87316 2.47886 19.83088 1
O 16.11259 3.71829 21.07031 1
O 14.87316 4.95772 0.0 1
O 16.11259 6.197150000000001 1.23943 1
O 14.87316 4.95772 2.47886 1
O 16.11259 6.197150000000001 3.71829 1
O 14.87316 4.95772 4.95772 1
O 16.11259 6.197150000000001 6.197150000000001 1
O 14.87316 4.95772 7.43658 1
O 16.11259 6.197150000000001 8.67601 1
O 14.87316 4.95772 9.91544 1
O 16.11259 6.197150000000001 11.15487 1
O 14.87316 4.95772 12.394300000000001 1
O 16.11259 6.197150000000001 13.633730000000002 1
O 14.87316 4.95772 14.87316 1
O 16.11259 6.197150000000001 16.11259 1
O 14.87316 4.95772 17.35202 1
O 16.11259 6.197150000000001 18.59145 1
O 14.87316 4.95772 19.83088 1
O 16.11259 6.197150000000001 21.07031 1
O 14.87316 7.43658 0.0 1
O 16.11259 8.67601 1.23943 1
O 14.87316 7.43658 2.47886 1
O 16.11259 8.67601 3.71829 1
O 14.87316 7.43658 4.95772 1
O 16.11259 8.67601 6.197150000000001 1
O 14.87316 7.43658 7.43658 1
O 16.11259 8.67601 8.67601 1
O 14.87316 7.43658 9.91544 1
O 16.11259 8.67601 11.15487 1
O 14.87316 7.43658 12.394300000000001 1
O 16.11259 8.67601 13.633730000000002 1
O 14.87316 7.43658 14.87316 1
O 16.11259 8.67601 16.11259 1
O 14.87316 7.43658 17.35202 1
O 16.11259 8.67601 18.59145 1
O 14.87316 7.43658 19.83088 1
O 16.11259 8.67601 21.07031 1
O 14.87316 9.91544 0.0 1
O 16.11259 11.15487 1.23943 1
O 14.87316 9.91544 2.47886 1
O 16.11259 11.15487 3.71829 1
O 14.87316 9.91544 4.95772 1
O 16.11259 11.15487 6.197150000000001 1
O 14.87316 9.91544 7.43658 1
O 16.11259 11.15487 8.67601 1
O 14.87316 9.91544 9.91544 1
O 16.11259 11.15487 11.15487 1
O 14.87316 9.91544 12.394300000000001 1
O 16.11259 11.15487 13.633730000000002 1
O 14.87316 9.91544 14.87316 1
O 16.11259 11.15487 16.11259 1
O 14.87316 9.91544 17.35202 1
O 16.11259 11.15487 18.59145 1
O 14.87316 9.91544 19.83088 1
O 16.11259 11.15487 21.07031 1
O 14.87316 12.394300000000001 0.0 1
O 16.11259 13.633730000000002 1.23943 1
O 14.87316 12.394300000000001 2.47886 1
O 16.11259 13.633730000000002 3.71829 1
O 14.87316 12.394300000000001 4.95772 1
O 16.11259 13.633730000000002 6.197150000000001 1
O 14.87316 12.394300000000001 7.43658 1
O 16.11259 13.633730000000002 8.67601 1
O 14.87316 12.394300000000001 9.91544 1
O 16.11259 13.633730000000002 11.15487 1
O 14.87316 12.394300000000001 12.394300000000001 1
O 16.11259 13.633730000000002 13.633730000000002 1
O 14.87316 12.394300000000001 14.87316 1
O 16.11259 13.633730000000002 16.11259 1
O 14.87316 12.394300000000001 17.35202 1
O 16.11259 13.633730000000002 18.59145 1
O 14.87316 12.394300000000001 19.83088 1
O 16.11259 13.633730000000002 21.07031 1
O 14.87316 14.87316 0.0 1
O 16.11259 16.11259 1.23943 1
O 14.87316 14.87316 2.47886 1
O 16.11259 16.11259 3.71829 1
O 14.87316 14.87316 4.95772 1
O 16.11259 16.11259 6.197150000000001 1
O 14.87316 14.87316 7.43658 1
O 16.11259 16.11259 8.67601 1
O 14.87316 14.87316 9.91544 1
O 16.11259 16.11259 11.15487 1
O 14.87316 14.87316 12.394300000000001 1
O 16.11259 16.11259 13.633730000000002 1
O 14.87316 14.87316 14.87316 1
O 16.11259 16.11259 16.11259 1
O 14.87316 14.87316 17.35202 1
O 16.11259 16.11259 18.59145 1
O 14.87316 14.87316 19.83088 1
O 16.11259 16.11259 21.07031 1
O 14.87316 17.35202 0.0 1
O 16.11259 18.59145 1.23943 1
O 14.87316 17.35202 2.47886 1
O 16.11259 18.59145 3.71829 1
O 14.87316 17.35202 4.95772 1
O 16.11259 18.59145 6.197150000000001 1
O 14.87316 17.35202 7.43658 1
O 16.11259 18.59145 8.67601 1
O 14.87316 17.35202 9.91544 1
O 16.11259 18.59145 11.15487 1
O 14.87316 17.35202 12.394300000000001 1
O 16.11259 18.59145 13.633730000000002 1
O 14.87316 17.35202 14.87316 1
O 16.11259 18.59145 16.11259 1
O 14.87316 17.35202 17.35202 1
O 16.11259 18.59145 18.59145 1
O 14.87316 17.35202 19.83088 1
O 16.11259 18.59145 21.07031 1
O 14.87316 19.83088 0.0 1
O 16.11259 21.07031 1.23943 1
O 14.87316 19.83088 2.47886 1
O 16.11259 21.07031 3.71829 1
O 14.87316 19.83088 4.95772 1
O 16.11259 21.07031 6.197150000000001 1
O 14.87316 19.83088 7.43658 1
O 16.11259 21.07031 8.67601 1
O 14.87316 19.83088 9.91544 1
O 16.11259 21.07031 11.15487 1
O 14.87316 19.83088 12.394300000000001 1
O 16.11259 21.07031 13.633730000000002 1
O 14.87316 19.83088 14.87316 1
O 16.11259 21.07031 16.11259 1
O 14.87316 19.83088 17.35202 1
O 16.11259 21.07031 18.59145 1
O 14.87316 19.83088 19.83088 1
O 16.11259 21.07031 21.07031 1
O 17.35202 0.0 0.0 1
O 18.59145 1.23943 1.23943 1
O 17.35202 0.0 2.47886 1
O 18.59145 1.23943 3.71829 1
O 17.35202 0.0 4.95772 1
O 18.59145 1.23943 6.197150000000001 1
O 17.35202 0.0 7.43658 1
O 18.59145 1.23943 8.67601 1
O 17.35202 0.0 9.91544 1
O 18.59145 1.23943 11.15487 1
O 17.35202 0.0 12.394300000000001 1
O 18.59145 1.23943 13.633730000000002 1
O 17.35202 0.0 14.87316 1
O 18.59145 1.23943 16.11259 1
O 17.35202 0.0 17.35202 1
O 18.59145 1.23943 18.59145 1
O 17.35202 0.0 19.83088 1
O 18.59145 1.23943 21.07031 1
O 17.35202 2.47886 0.0 1
O 18.59145 3.71829 1.23943 1
O 17.35202 2.47886 2.47886 1
O 18.59145 3.71829 3.71829 1
O 17.35202 2.47886 4.95772 1
O 18.59145 3.71829 6.197150000000001 1
O 17.35202 2.47886 7.43658 1
O 18.59145 3.71829 8.67601 1
O 17.35202 2.47886 9.91544 1
O 18.59145 3.71829 11.15487 1
O 17.35202 2.47886 12.394300000000001 1
O 18.59145 3.71829 13.633730000000002 1
O 17.35202 2.47886 14.87316 1
O 18.59145 3.71829 16.11259 1
O 17.35202 2.47886 17.35202 1
O 18.59145 3.71829 18.59145 1
O 17.35202 2.47886 19.83088 1
O 18.59145 3.71829 21.07031 1
O 17.35202 4.95772 0.0 1
O 18.59145 6.197150000000001 1.23943 1
O 17.35202 4.95772 2.47886 1
O 18.59145 6.197150000000001 3.71829 1
O 17.35202 4.95772 4.95772 1
O 18.59145 6.197150000000001 6.197150000000001 1
O 17.35202 4.95772 7.43658 1
O 18.59145 6.197150000000001 8.67601 1
O 17.35202 4.95772 9.91544 1
O 18.59145 6.197150000000001 11.15487 1
O 17.35202 4.95772 12.394300000000001 1
O 18.59145 6.197150000000001 13.633730000000002 1
O 17.35202 4.95772 14.87316 1
O 18.59145 6.197150000000001 16.11259 1
O 17.35202 4.95772 17.35202 1
O 18.59145 6.197150000000001 18.59145 1
O 17.35202 4.95772 19.83088 1
O 18.59145 6.197150000000001 21.07031 1
O 17.35202 7.43658 0.0 1
O 18.59145 8.67601 1.23943 1
O 17.35202 7.43658 2.47886 1
O 18.59145 8.67601 3.71829 1
O 17.35202 7.43658 4.95772 1
O 18.59145 8.67601 6.197150000000001 1
O 17.35202 7.43658 7.43658 1
O 18.59145 8.67601 8.67601 1
O 17.35202 7.43658 9.91544 1
O 18.59145 8.67601 11.15487 1
O 17.35202 7.43658 12.394300000000001 1
O 18.59145 8.67601 13.633730000000002 1
O 17.35202 7.43658 14.87316 1
O 18.59145 8.67601 16.11259 1
O 17.35202 7.43658 17.35202 1
O 18.59145 8.67601 18.59145 1
O 17.35202 7.43658 19.83088 1
O 18.59145 8.67601 21.07031 1
O 17.35202 9.91544 0.0 1
O 18.59145 11.15487 1.23943 1
O 17.35202 9.91544 2.47886 1
O 18.59145 11.15487 3.71829 1
O 17.35202 9.91544 4.95772 1
O 18.59145 11.15487 6.197150000000001 1
O 17.35202 9.91544 7.43658 1
O 18.59145 11.15487 8.67601 1
O 17.35202 9.91544 9.91544 1
O 18.59145 11.15487 11.15487 1
O 17.35202 9.91544 12.394300000000001 1
O 18.59145 11.15487 13.633730000000002 1
O 17.35202 9.91544 14.87316 1
O 18.59145 11.15487 16.11259 1
O 17.35202 9.91544 17.35202 1
O 18.59145 11.15487 18.59145 1
O 17.35202 9.91544 19.83088 1
O 18.59145 11.15487 21.07031 1
O 17.35202 12.394300000000001 0.0 1
O 18.59145 13.633730000000002 1.23943 1
O 17.35202 12.394300000000001 2.47886 1
O 18.59145 13.633730000000002 3.71829 1
O 17.35202 12.394300000000001 4.95772 1
O 18.59145 13.633730000000002 6.197150000000001 1
O 17.35202 12.394300000000001 7.43658 1
O 18.59145 13.633730000000002 8.67601 1
O 17.35202 12.394300000000001 9.91544 1
O 18.59145 13.633730000000002 11.15487 1
O 17.35202 12.394300000000001 12.394300000000001 1
O 18.59145 13.633730000000002 13.633730000000002 1
O 17.35202 12.394300000000001 14.87316 1
O 18.59145 13.633730000000002 16.11259 1
O 17.35202 12.394300000000001 17.35202 1
O 18.59145 13.633730000000002 18.59145 1
O 17.35202 12.394300000000001 19.83088 1
O 18.59145 13.633730000000002 21.07031 1
O 17.35202 14.87316 0.0 1
O 18.59145 16.11259 1.23943 1
O 17.35202 14.87316 2.47886 1
O 18.59145 16.11259 3.71829 1
O 17.35202 14.87316 4.95772 1
O 18.59145 16.11259 6.197150000000001 1
O 17.35202 14.87316 7.43658 1
O 18.59145 16.11259 8.67601 1
O 17.35202 14.87316 9.91544 1
O 18.59145 16.11259 11.15487 1
O 17.35202 14.87316 12.394300000000001 1
O 18.59145 16.11259 13.633730000000002 1
O 17.35202 14.87316 14.87316 1
O 18.59145 16.11259 16.11259 1
O 17.35202 14.87316 17.35202 1
O 18.59145 16.11259 18.59145 1
O 17.35202 14.87316 19.83088 1
O 18.59145 16.11259 21.07031 1
O 17.35202 17.35202 0.0 1
O 18.59145 18.59145 1.23943 1
O 17.35202 17.35202 2.47886 1
O 18.59145 18.59145 3.71829 1
O 17.35202 17.35202 4.95772 1
O 18.59145 18.59145 6.197150000000001 1
O 17.35202 17.35202 7.43658 1
O 18.59145 18.59145 8.67601 1
O 17.35202 17.35202 9.91544 1
O 18.59145 18.59145 11.15487 1
O 17.35202 17.35202 12.394300000000001 1
O 18.59145 18.59145 13.633730000000002 1
O 17.35202 17.35202 14.87316 1
O 18.59145 18.59145 16.11259 1
O 17.35202 17.35202 17.35202 1
O 18.59145 18.59145 18.59145 1
O 17.35202 17.35202 19.83088 1
O 18.59145 18.59145 21.07031 1
O 17.35202 19.83088 0.0 1
O 18.59145 21.07031 1.23943 1
O 17.35202 19.83088 2.47886 1
O 18.59145 21.07031 3.71829 1
O 17.35202 19.83088 4.95772 1
O 18.59145 21.07031 6.197150000000001 1
O 17.35202 19.83088 7.43658 1
O 18.59145 21.07031 8.67601 1
O 17.35202 19.83088 9.91544 1
O 18.59145 21.07031 11.15487 1
O 17.35202 19.83088 12.394300000000001 1
O 18.59145 21.07031 13.633730000000002 1
O 17.35202 19.83088 14.87316 1
O 18.59145 21.07031 16.11259 1
O 17.35202 19.83088 17.35202 1
O 18.59145 21.07031 18.59145 1
O 17.35202 19.83088 19.83088 1
O 18.59145 21.07031 21.07031 1
O 19.83088 0.0 0.0 1
O 21.07031 1.23943 1.23943 1
O 19.83088 0.0 2.47886 1
O 21.07031 1.23943 3.71829 1
O 19.83088 0.0 4.95772 1
O 21.07031 1.23943 6.197150000000001 1
O 19.83088 0.0 7.43658 1
O 21.07031 1.23943 8.67601 1
O 19.83088 0.0 9.91544 1
O 21.07031 1.23943 11.15487 1
O 19.83088 0.0 12.394300000000001 1
O 21.07031 1.23943 13.633730000000002 1
O 19.83088 0.0 14.87316 1
O 21.07031 1.23943 16.11259 1
O 19.83088 0.0 17.35202 1
O 21.07031 1.23943 18.59145 1
O 19.83088 0.0 19.83088 1
O 21.07031 1.23943 21.07031 1
O 19.83088 2.47886 0.0 1
O 21.07031 3.71829 1.23943 1
O 19.83088 2.47886 2.47886 1
O 21.07031 3.71829 3.71829 1
O 19.83088 2.47886 4.95772 1
O 21.07031 3.71829 6.197150000000001 1
O 19.83088 2.47886 7.43658 1
O 21.07031 3.71829 8.67601 1
O 19.83088 2.47886 9.91544 1
O 21.07031 3.71829 11.15487 1
O 19.83088 2.47886 12.394300000000001 1
O 21.07031 3.71829 13.633730000000002 1
O 19.83088 2.47886 14.87316 1
O 21.07031 3.71829 16.11259 1
O 19.83088 2.47886 17.35202 1
O 21.07031 3.71829 18.59145 1
O 19.83088 2.47886 19.83088 1
O 21.07031 3.71829 21.07031 1
O 19.83088 4.95772 0.0 1
O 21.07031 6.197150000000001 1.23943 1
O 19.83088 4.95772 2.47886 1
O 21.07031 6.197150000000001 3.71829 1
O 19.83088 4.95772 4.95772 1
O 21.07031 6.197150000000001 6.197150000000001 1
O 19.83088 4.95772 7.43658 1
O 21.07031 6.197150000000001 8.67601 1
O 19.83088 4.95772 9.91544 1
O 21.07031 6.197150000000001 11.15487 1
O 19.83088 4.95772 12.394300000000001 1
O 21.07031 6.197150000000001 13.633730000000002 1
O 19.83088 4.95772 14.87316 1
O 21.07031 6.197150000000001 16.11259 1
O 19.83088 4.95772 17.35202 1
O 21.07031 6.197150000000001 18.59145 1
O 19.83088 4.95772 19.83088 1
O 21.07031 6.197150000000001 21.07031 1
O 19.83088 7.43658 0.0 1
O 21.07031 8.67601 1.23943 1
O 19.83088 7.43658 2.47886 1
O 21.07031 8.67601 3.71829 1
O 19.83088 7.43658 4.95772 1
O 21.07031 8.67601 6.197150000000001 1
O 19.83088 7.43658 7.43658 1
O 21.07031 8.67601 8.67601 1
O 19.83088 7.43658 9.91544 1
O 21.07031 8.67601 11.15487 1
O 19.83088 7.43658 12.394300000000001 1
O 21.07031 8.67601 13.633730000000002 1
O 19.83088 7.43658 14.87316 1
O 21.07031 8.67601 16.11259 1
O 19.83088 7.43658 17.35202 1
O 21.07031 8.67601 18.59145 1
O 19.83088 7.43658 19.83088 1
O 21.07031 8.67601 21.07031 1
O 19.83088 9.91544 0.0 1
O 21.07031 11.15487 1.23943 1
O 19.83088 9.91544 2.47886 1
O 21.07031 11.15487 3.71829 1
O 19.83088 9.91544 4.95772 1
O 21.07031 11.15487 6.197150000000001 1
O 19.83088 9.91544 7.43658 1
O 21.07031 11.15487 8.67601 1
O 19.83088 9.91544 9.91544 1
O 21.07031 11.15487 11.15487 1
O 19.83088 9.91544 12.394300000000001 1
O 21.07031 11.15487 13.633730000000002 1
O 19.83088 9.91544 14.87316 1
O 21.07031 11.15487 16.11259 1
O 19.83088 9.91544 17.35202 1
O 21.07031 11.15487 18.59145 1
O 19.83088 9.91544 19.83088 1
O 21.07031 11.15487 21.07031 1
O 19.83088 12.394300000000001 0.0 1
O 21.07031 13.633730000000002 1.23943 1
O 19.83088 12.394300000000001 2.47886 1
O 21.07031 13.633730000000002 3.71829 1
O 19.83088 12.394300000000001 4.95772 1
O 21.07031 13.633730000000002 6.197150000000001 1
O 19.83088 12.394300000000001 7.43658 1
O 21.07031 13.633730000000002 8.67601 1
O 19.83088 12.394300000000001 9.91544 1
O 21.07031 13.633730000000002 11.15487 1
O 19.83088 12.394300000000001 12.394300000000001 1
O 21.07031 13.633730000000002 13.633730000000002 1
O 19.83088 12.394300000000001 14.87316 1
O 21.07031 13.633730000000002 16.11259 1
O 19.83088 12.394300000000001 17.35202 1
O 21.07031 13.633730000000002 18.59145 1
O 19.83088 12.394300000000001 19.83088 1
O 21.07031 13.633730000000002 21.07031 1
O 19.83088 14.87316 0.0 1
O 21.07031 16.11259 1.23943 1
O 19.83088 14.87316 2.47886 1
O 21.07031 16.11259 3.71829 1
O 19.83088 14.87316 4.95772 1
O 21.07031 16.11259 6.197150000000001 1
O 19.83088 14.87316 7.43658 1
O 21.07031 16.11259 8.67601 1
O 19.83088 14.87316 9.91544 1
O 21.07031 16.11259 11.15487 1
O 19.83088 14.87316 12.394300000000001 1
O 21.07031 16.11259 13.633730000000002 1
O 19.83088 14.87316 14.87316 1
O 21.07031 16.11259 16.11259 1
O 19.83088 14.87316 17.35202 1
O 21.07031 16.11259 18.59145 1
O 19.83088 14.87316 19.83088 1
O 21.07031 16.11259 21.07031 1
O 19.83088 17.35202 0.0 1
O 21.07031 18.59145 1.23943 1
O 19.83088 17.35202 2.47886 1
O 21.07031 18.59145 3.71829 1
O 19.83088 17.35202 4.95772 1
O 21.07031 18.59145 6.197150000000001 1
O 19.83088 17.35202 7.43658 1
O 21.07031 18.59145 8.67601 1
O 19.83088 17.35202 9.91544 1
O 21.07031 18.59145 11.15487 1
O 19.83088 17.35202 12.394300000000001 1
O 21.07031 18.59145 13.633730000000002 1
O 19.83088 17.35202 14.87316 1
O 21.07031 18.59145 16.11259 1
O 19.83088 17.35202 17.35202 1
O 21.07031 18.59145 18.59145 1
O 19.83088 17.35202 19.83088 1
O 21.07031 18.59145 21.07031 1
O 19.83088 19.83088 0.0 1
O 21.07031 21.07031 1.23943 1
O 19.83088 19.83088 2.47886 1
O 21.07031 21.07031 3.71829 1
O 19.83088 19.83088 4.95772 1
O 21.07031 21.07031 6.197150000000001 1
O 19.83088 19.83088 7.43658 1
O 21.07031 21.07031 8.67601 1
O 19.83088 19.83088 9.91544 1
O 21.07031 21.07031 11.15487 1
O 19.83088 19.83088 12.394300000000001 1
O 21.07031 21.07031 13.633730000000002 1
O 19.83088 19.83088 14.87316 1
O 21.07031 21.07031 16.11259 1
O 19.83088 19.83088 17.35202 1
O 21.07031 21.07031 18.59145 1
O 19.83088 19.83088 19.83088 1
O 21.07031 21.07031 21.07031 1
