4374
Lattice="  2.2816291e+01  0.0000000e+00  0.0000000e+00  0.0000000e+00  2.2816291e+01  0.0000000e+00  0.0000000e+00  0.0000000e+00  2.2816291e+01" Properties=species:S:1:pos:R:3
H 0.74918 0.660163 0.672221
H 0.498234 2.06107 1.89489
H 1.97382 0.657768 1.96864
H 1.92906 1.86064 0.7838
H 0.525912 0.643464 3.25018
H 0.527798 1.70707 4.49379
H 1.8673 0.605035 4.46796
H 1.78529 1.90299 3.20576
H 0.602376 0.576682 5.7604
H 0.642573 1.96083 6.93242
H 1.91852 0.660224 6.91472
H 1.9427 1.73187 5.65858
H 0.698446 0.545102 8.17178
H 0.579551 1.80738 9.42512
H 1.8754 0.551442 9.4248
H 1.80981 1.88431 8.20039
H 0.733926 0.662205 10.659
H 0.472824 1.97625 11.9654
H 1.93135 0.65748 11.9698
H 1.87172 1.79692 10.7253
H 0.679723 0.53336 13.3299
H 0.657539 1.90167 14.412
H 2.06883 0.539444 14.5167
H 1.94196 1.8192 13.252
H 0.510764 0.60045 15.7708
H 0.670245 1.80491 16.9293
H 1.90881 0.516179 17.1157
H 1.99458 1.80031 15.5739
H 0.626429 0.506391 18.4265
H 0.650804 1.86325 19.5613
H 1.88483 0.657339 19.6057
H 1.81567 1.90322 18.2365
H 0.68322 0.615399 20.9371
H 0.671292 1.84318 22.2
H 2.01213 0.641868 22.2475
H 1.93601 2.00952 20.9193
H 0.526941 3.18442 0.644605
H 0.698133 4.45255 1.98727
H 1.87853 3.21565 1.92769
H 1.8457 4.46436 0.57052
H 0.533649 3.1767 3.23582
H 0.789599 4.49254 4.51662
H 1.77797 3.11306 4.66104
H 2.00939 4.38817 3.34128
H 0.587481 3.21535 5.63824
H 0.695414 4.35169 6.89939
H 2.04314 3.07588 6.97946
H 1.8491 4.35717 5.65096
H 0.639354 3.23603 8.31292
H 0.594353 4.38186 9.48565
H 1.885 3.18525 9.45737
H 1.9388 4.46956 8.33171
H 0.587154 3.08326 10.7423
H 0.846666 4.37874 11.9359
H 1.91923 3.1811 11.9335
H 2.02982 4.32006 10.6295
H 0.850621 3.24171 13.2355
H 0.679083 4.29096 14.5649
H 1.99319 2.98667 14.6125
H 2.03269 4.4049 13.1251
H 0.645779 3.15704 15.8795
H 0.759189 4.22378 16.9975
H 1.95926 3.03135 17.0392
H 2.0072 4.31484 15.8138
H 0.476361 3.09491 18.2501
H 0.661896 4.52077 19.6815
H 1.93631 3.14794 19.3508
H 1.81501 4.32876 18.3415
H 0.54708 3.10707 21.0276
H 0.595563 4.40258 22.2818
H 1.91197 3.21733 22.1765
H 1.84879 4.49201 20.9838
H 0.611174 5.74858 0.72887
H 0.579371 7.03077 1.72465
H 1.81165 5.7187 1.98039
H 1.84031 7.14932 0.775402
H 0.539783 5.76969 3.13979
H 0.610501 7.03252 4.51237
H 1.77364 5.73014 4.54358
H 1.89994 6.99469 3.29482
H 0.674356 5.7476 5.7392
H 0.703448 7.01712 7.08654
H 1.95351 5.72307 6.99104
H 1.95348 6.8439 5.67936
H 0.80072 5.70875 8.19933
H 0.487972 6.93447 9.5274
H 1.88046 5.59801 9.42643
H 1.95825 6.90937 8.19412
H 0.657176 5.63191 10.7146
H 0.671928 6.74598 11.9898
H 1.91603 5.65392 11.9616
H 1.90748 6.87314 10.7051
H 0.72483 5.56408 13.2704
H 0.608606 6.84587 14.5879
H 1.88382 5.64284 14.4724
H 1.81076 6.7906 13.2094
H 0.570023 5.64001 15.934
H 0.727942 6.93916 17.047
H 1.79703 5.59956 17.1826
H 1.91325 6.9029 15.8562
H 0.640018 5.64299 18.3398
H 0.725118 6.99835 19.6589
H 1.8671 5.61726 19.5883
H 1.74117 6.85761 18.329
H 0.661411 5.74221 20.8556
H 0.591646 6.93723 22.2409
H 1.92281 5.72316 22.2584
H 1.96292 6.94685 21.0708
H 0.532783 8.35512 0.642148
H 0.60955 9.40286 2.20151
H 1.76721 8.23398 2.02134
H 1.91351 9.53375 0.773511
H 0.593869 8.11092 3.25237
H 0.53828 9.49947 4.46844
H 1.8859 8.2365 4.44665
H 1.92844 9.50958 3.03997
H 0.610091 8.35991 5.75461
H 0.638493 9.52822 7.09435
H 1.91862 8.23667 6.93461
H 1.83108 9.48876 5.5737
H 0.679394 8.17961 8.24459
H 0.590545 9.48529 9.45299
H 1.78763 8.19485 9.53647
H 1.83813 9.5208 8.32883
H 0.648284 8.1415 10.8139
H 0.667615 9.43532 12.1489
H 1.8746 8.10713 12.0326
H 1.91048 9.47267 10.7847
H 0.674909 8.32866 13.289
H 0.71937 9.46526 14.591
H 1.98399 8.18941 14.5602
H 1.87524 9.50266 13.3933
H 0.686742 8.25491 15.7742
H 0.582048 9.43065 17.108
H 1.77713 8.21215 17.0368
H 1.85686 9.62952 15.7755
H 0.757345 8.42106 18.3327
H 0.510166 9.48369 19.5407
H 1.89988 8.06442 19.5454
H 2.08553 9.57895 18.5323
H 0.610242 8.16102 20.9803
H 0.589673 9.51535 22.2029
H 1.80685 8.19336 22.1343
H 1.91112 9.49218 20.9924
H 0.607431 10.9177 0.774367
H 0.746286 12.1433 1.92583
H 1.79949 10.8086 1.93963
H 1.97596 11.9556 0.590514
H 0.555352 10.7572 3.17285
H 0.625392 11.858 4.4926
H 1.87768 10.7103 4.30449
H 1.94119 11.9783 3.15119
H 0.641521 10.7647 5.71834
H 0.538904 11.9691 7.08885
H 1.95188 10.6164 6.9831
H 1.84261 11.995 5.60609
H 0.782414 10.7131 8.21651
H 0.67546 12.0532 9.3701
H 1.90938 10.7607 9.42829
H 1.93017 12.0363 8.14809
H 0.739808 10.7248 10.7053
H 0.52754 11.9897 11.9378
H 1.95803 10.8141 11.8998
H 1.82173 12.0814 10.619
H 0.750144 10.7767 13.3215
H 0.709371 12.1016 14.5217
H 2.11536 10.8679 14.5193
H 1.99827 11.9668 13.2412
H 0.675072 10.8687 15.796
H 0.658201 11.9603 17.1768
H 1.87325 10.7001 17.0562
H 1.84741 11.9815 15.8885
H 0.67851 10.5749 18.4043
H 0.659793 12.0049 19.7068
H 1.89047 10.8885 19.7387
H 1.95743 12.0284 18.4616
H 0.577204 10.8322 20.9431
H 0.556559 12.1119 22.2827
H 1.80378 10.7332 22.2413
H 1.78534 11.9876 21.0103
H 0.640868 13.2258 0.734761
H 0.697547 14.6564 1.83104
H 1.90001 13.2374 1.96229
H 1.89149 14.5284 0.601293
H 0.755198 13.2504 3.27894
H 0.603536 14.5899 4.33555
H 1.88582 13.2835 4.43656
H 1.92923 14.4838 3.28251
H 0.741402 13.1132 5.66375
H 0.584249 14.4618 6.93741
H 1.82892 13.2535 6.9662
H 1.78499 14.4872 5.74316
H 0.576354 13.3019 8.06749
H 0.634836 14.809 9.51934
H 1.83903 13.4675 9.43049
H 1.88034 14.502 8.1628
H 0.506129 13.2229 10.6721
H 0.550375 14.5285 12.0607
H 1.93629 13.4095 11.8779
H 1.71666 14.679 10.8081
H 0.663035 13.2158 13.183
H 0.651196 14.5592 14.6393
H 1.93621 13.3599 14.5242
H 1.83905 14.6 13.4224
H 0.593696 13.2414 15.8653
H 0.55881 14.437 17.1824
H 1.77365 13.2437 16.9551
H 1.76318 14.6955 15.8217
H 0.481701 13.3859 18.2479
H 0.615146 14.6454 19.5712
H 1.92643 13.2593 19.587
H 1.83944 14.4139 18.3113
H 0.475353 13.2999 20.8618
H 0.729049 14.5426 22.3003
H 1.91777 13.3692 22.0959
H 1.85475 14.5392 20.8252
H 0.694175 15.8397 0.583315
H 0.655061 17.1432 1.81597
H 1.93207 15.6578 1.98327
H 1.8439 17.089 0.624126
H 0.537734 15.7932 3.2409
H 0.663698 17.1343 4.42421
H 1.8593 15.8402 4.49875
H 1.84017 17.1118 3.19587
H 0.623459 15.7181 5.49531
H 0.64053 16.9765 6.9346
H 2.00646 15.7762 6.85921
H 1.83103 17.1735 5.77381
H 0.627866 15.8582 8.25568
H 0.567253 17.0106 9.57115
H 1.89178 15.9139 9.43564
H 1.83573 17.1478 8.18603
H 0.569624 15.8967 10.8779
H 0.445325 17.2146 12.0958
H 1.76568 15.9374 12.1671
H 1.70898 17.0971 10.8945
H 0.460006 15.9081 13.1737
H 0.711212 17.0809 14.5048
H 1.7698 15.8962 14.623
H 1.9162 17.0618 13.3073
H 0.530065 15.9682 15.7958
H 0.566907 17.2801 17.042
H 1.96251 15.8697 17.1486
H 1.82679 17.1325 15.8606
H 0.750997 15.8052 18.4253
H 0.523659 17.0895 19.6407
H 1.90922 15.9587 19.6313
H 1.97606 17.1658 18.2386
H 0.570544 15.751 20.8788
H 0.65666 17.0165 22.099
H 1.92016 15.9488 22.2261
H 1.8534 17.1356 20.8545
H 0.681094 18.5244 0.653414
H 0.686961 19.7694 1.95092
H 1.98308 18.2602 1.6517
H 1.87893 19.6841 0.703068
H 0.673368 18.2852 3.21578
H 0.629707 19.5005 4.54311
H 1.85591 18.3815 4.50378
H 1.90738 19.6593 3.15816
H 0.634231 18.454 5.5756
H 0.605928 19.6371 6.9257
H 1.7433 18.3132 6.93916
H 1.94414 19.6365 5.61597
H 0.667713 18.3581 8.15865
H 0.581238 19.6606 9.42255
H 1.83145 18.3903 9.55881
H 1.82513 19.5699 8.16579
H 0.560773 18.3993 10.8197
H 0.720445 19.7209 11.9949
H 1.79906 18.4685 12.0955
H 1.88048 19.6918 10.7937
H 0.628695 18.3793 13.3345
H 0.8273 19.7735 14.4791
H 1.92745 18.3924 14.5157
H 1.96392 19.6573 13.1297
H 0.570767 18.3857 15.6916
H 0.656086 19.7109 17.0131
H 1.81782 18.3583 17.125
H 1.8075 19.6829 15.9384
H 0.650067 18.3709 18.467
H 0.744483 19.8059 19.6868
H 1.89546 18.2811 19.5496
H 1.94666 19.515 18.3444
H 0.719856 18.3486 20.9111
H 0.598707 19.7748 22.2217
H 1.93227 18.591 22.2044
H 1.87348 19.4991 21.0046
H 0.622279 21.1008 0.666096
H 0.622872 22.1462 2.09385
H 1.888 20.8777 1.88792
H 1.94181 22.1596 0.719126
H 0.504493 21.0123 3.23762
H 0.602555 22.1516 4.4143
H 1.94953 20.9371 4.42286
H 1.91241 22.202 3.16895
H 0.555471 20.8926 5.68476
H 0.546826 22.1544 6.87967
H 1.82876 20.8954 6.84664
H 2.00679 22.2545 5.68892
H 0.698349 20.8703 8.30584
H 0.61275 22.1804 9.47319
H 1.98059 21.0318 9.59033
H 1.8349 22.0484 8.08914
H 0.561688 21.0156 10.8618
H 0.722885 22.2382 12.0667
H 1.97202 21.0695 11.9915
H 1.95928 22.2303 10.7139
H 0.741096 20.9016 13.267
H 0.518824 22.3988 14.5199
H 1.9082 21.0728 14.608
H 1.79763 22.2356 13.1965
H 0.596453 20.8373 15.8518
H 0.476983 22.2413 17.2088
H 1.87716 20.9936 17.1861
H 1.80336 22.2243 15.7927
H 0.657079 20.9567 18.2641
H 0.638933 22.1571 19.6403
H 1.97424 20.8991 19.5537
H 1.94388 22.1859 18.4673
H 0.719823 21.0234 20.7671
H 0.568686 22.2837 22.198
H 1.90023 20.9812 22.2229
H 1.93834 22.3121 20.9184
H 3.22722 0.63433 0.659621
H 3.13546 2.08718 1.99145
H 4.38718 0.659398 1.98602
H 4.322 1.99113 0.747433
H 3.19512 0.720924 3.13718
H 3.26896 2.00706 4.49306
H 4.36696 0.571263 4.43397
H 4.3923 2.0178 3.06386
H 3.3403 0.583156 5.71154
H 3.23435 1.68469 7.07413
H 4.47992 0.55724 7.0413
H 4.4702 2.00946 5.78827
H 3.221 0.475781 8.29018
H 3.09754 1.80576 9.3768
H 4.57829 0.598484 9.57474
H 4.42042 1.74136 8.1677
H 3.13008 0.500873 10.661
H 3.15395 1.82718 11.9661
H 4.38559 0.650883 12.0119
H 4.38577 1.81224 10.6271
H 3.21419 0.580621 13.1763
H 3.27719 1.77519 14.5656
H 4.44105 0.633248 14.6004
H 4.45488 1.93125 13.1276
H 3.11618 0.576692 15.9738
H 3.11062 1.85479 17.0274
H 4.49551 0.79842 17.1993
H 4.49285 1.87552 15.7851
H 3.19586 0.603195 18.3273
H 3.18011 1.90814 19.6952
H 4.3581 0.625136 19.8435
H 4.46623 1.82935 18.5338
H 3.22678 0.594437 20.8552
H 3.11499 1.86018 22.2883
H 4.46995 0.621513 22.2736
H 4.44495 1.86525 20.9603
H 3.16947 3.24062 0.574293
H 3.1026 4.32759 2.05208
H 4.35662 3.06228 1.939
H 4.4957 4.35421 0.644374
H 2.99373 3.19981 3.25901
H 3.2246 4.5056 4.60525
H 4.41975 3.22256 4.48552
H 4.41436 4.42566 3.17505
H 3.19906 3.1234 5.69525
H 3.22031 4.46477 6.87208
H 4.54655 3.30791 6.97733
H 4.54392 4.55745 5.83425
H 3.13628 3.21311 8.1736
H 3.28954 4.45843 9.48979
H 4.52918 3.2055 9.47282
H 4.47192 4.45225 8.20165
H 3.15114 3.05304 10.6799
H 3.28403 4.34312 11.9493
H 4.54001 3.23735 12.0998
H 4.50468 4.47969 10.7499
H 3.18915 3.08101 13.2154
H 3.13842 4.39421 14.5257
H 4.41818 3.18361 14.6037
H 4.38692 4.60228 13.1516
H 3.45037 3.11965 15.8492
H 3.20637 4.43588 17.0867
H 4.42004 3.01578 17.2206
H 4.47544 4.54528 15.8047
H 3.24837 3.18688 18.3365
H 3.18726 4.5533 19.5814
H 4.41455 3.13324 19.7111
H 4.52486 4.38448 18.3237
H 3.18927 3.09721 20.8049
H 3.20386 4.38082 22.2438
H 4.36421 3.23963 22.1647
H 4.40955 4.39458 20.8557
H 3.2216 5.69517 0.788071
H 3.23151 6.94973 2.10213
H 4.48461 5.65226 1.95637
H 4.46034 7.02806 0.694663
H 3.13787 5.64476 3.16651
H 3.07267 6.89632 4.35492
H 4.49549 5.86695 4.53212
H 4.55264 6.94414 3.11455
H 3.20465 5.7556 5.88381
H 3.32132 7.03669 7.03685
H 4.44283 5.68324 6.95807
H 4.55593 6.98555 5.72926
H 3.28207 5.59901 8.12115
H 3.19403 7.02255 9.55532
H 4.5193 5.6428 9.51711
H 4.54664 6.82868 8.28583
H 3.26242 5.68042 10.7826
H 3.33072 7.00664 12.0157
H 4.52172 5.89683 12.0888
H 4.32144 6.99718 10.7128
H 3.28198 5.71968 13.3201
H 3.01497 6.89659 14.7104
H 4.27095 5.5834 14.6199
H 4.517 6.89103 13.4347
H 3.07888 5.5968 15.8773
H 3.06803 6.9351 17.0946
H 4.60879 5.66593 17.0374
H 4.38004 6.98548 15.9234
H 3.23229 5.72863 18.3383
H 3.17699 6.87144 19.6145
H 4.51986 5.70631 19.7058
H 4.52874 6.99528 18.5667
H 3.13158 5.70905 20.9215
H 3.02595 7.0289 22.3927
H 4.40295 5.88496 22.3277
H 4.30941 6.92047 21.0261
H 3.17115 8.24123 0.887014
H 3.19215 9.6384 1.91429
H 4.51864 8.39926 2.06503
H 4.45889 9.4462 0.634397
H 3.11324 8.24328 3.22389
H 3.11922 9.48933 4.39592
H 4.3992 8.16687 4.42556
H 4.42992 9.5881 3.2234
H 3.19844 8.17277 5.5822
H 3.18402 9.48836 6.90016
H 4.42368 8.0759 6.92964
H 4.35151 9.4862 5.63845
H 3.05002 8.24172 8.18894
H 3.32988 9.55208 9.52723
H 4.32193 8.18344 9.49262
H 4.42067 9.4647 8.17646
H 3.17873 8.28935 10.806
H 3.21955 9.39164 12.047
H 4.66667 8.3537 12.0374
H 4.41842 9.66243 10.6591
H 3.09258 8.16985 13.2547
H 3.15774 9.43546 14.543
H 4.40416 8.20737 14.3667
H 4.40575 9.49137 13.2004
H 3.2439 8.21898 15.9548
H 3.13432 9.401 17.1466
H 4.42739 8.2286 17.1641
H 4.26348 9.56839 15.8272
H 3.03016 8.10742 18.3287
H 3.09569 9.54589 19.8137
H 4.32692 8.16479 19.5407
H 4.44769 9.49773 18.4428
H 3.24892 8.25593 20.8811
H 3.06308 9.31249 22.2941
H 4.3571 8.22373 22.3086
H 4.60602 9.46623 20.9036
H 3.12923 10.8383 0.64898
H 3.31137 12.0077 1.94401
H 4.3499 10.6733 1.92003
H 4.50313 12.1609 0.679152
H 3.28291 10.8 3.21464
H 3.20021 11.952 4.50669
H 4.36158 10.8178 4.46685
H 4.53457 12.0694 3.2003
H 3.1511 10.631 5.60231
H 3.10486 12.0699 6.94398
H 4.38787 10.8467 6.94256
H 4.42906 12.0251 5.79692
H 3.15702 10.8235 8.19711
H 3.0914 12.0963 9.46348
H 4.45922 10.7908 9.34872
H 4.40893 12.0532 8.04437
H 3.21358 10.7131 10.7505
H 3.26407 12.0302 11.9498
H 4.57596 10.8231 12.0305
H 4.56698 12.0444 10.7054
H 3.13994 10.611 13.1592
H 3.18941 12.1505 14.6378
H 4.54389 10.7811 14.4673
H 4.39251 11.924 13.4667
H 3.21561 10.7244 15.923
H 2.98601 12.0685 17.0384
H 4.30708 10.765 17.216
H 4.28937 11.9615 15.8393
H 3.13645 10.7283 18.2896
H 3.04043 12.1112 19.6122
H 4.32976 10.8163 19.738
H 4.44948 12.007 18.3821
H 3.16764 10.7044 21.003
H 3.24797 12.0478 22.1663
H 4.37295 10.6667 22.2683
H 4.45802 12.0047 21.0207
H 3.07017 13.2335 0.625216
H 3.27337 14.567 1.94185
H 4.41678 13.3004 1.89599
H 4.56802 14.5955 0.768036
H 3.26122 13.2826 3.18195
H 3.14885 14.5055 4.32496
H 4.38718 13.3763 4.55217
H 4.45592 14.5242 3.1274
H 3.19121 13.3202 5.6451
H 3.16876 14.5844 6.71472
H 4.53123 13.4007 6.91811
H 4.51721 14.6876 5.63019
H 3.22319 13.4567 8.26728
H 2.95545 14.6225 9.59571
H 4.3021 13.4089 9.52123
H 4.22258 14.5622 8.27161
H 3.00179 13.3122 10.7517
H 3.15988 14.6695 11.9672
H 4.3757 13.311 12.0624
H 4.4759 14.689 10.8139
H 3.00441 13.3681 13.2692
H 2.99434 14.6022 14.6119
H 4.34162 13.3609 14.4769
H 4.26858 14.6509 13.3913
H 3.03906 13.2984 15.7775
H 3.04166 14.5 17.0814
H 4.37765 13.2427 17.0152
H 4.37226 14.5523 15.814
H 3.0994 13.412 18.2589
H 3.13205 14.5108 19.6789
H 4.41189 13.2045 19.7019
H 4.34319 14.5546 18.3739
H 3.12989 13.2547 21.0145
H 3.00896 14.5261 22.171
H 4.48367 13.4423 22.3539
H 4.38515 14.5024 20.8771
H 3.16965 15.7777 0.624287
H 3.08293 17.0895 1.97283
H 4.49587 15.9883 1.93078
H 4.41506 17.1994 0.634782
H 3.19213 15.8017 3.15093
H 3.09805 17.1436 4.31484
H 4.45545 15.9955 4.4603
H 4.40621 17.0409 3.04862
H 3.0508 15.876 5.60876
H 3.23309 17.104 6.89874
H 4.54067 15.8354 6.96228
H 4.31802 17.114 5.79555
H 3.17334 15.911 8.06256
H 3.00374 17.0983 9.47129
H 4.41559 15.8549 9.52013
H 4.28908 17.2255 8.23301
H 3.2588 15.764 10.9603
H 3.19169 17.1301 12.0964
H 4.41394 15.8859 12.0989
H 4.41075 17.1254 10.7207
H 3.15874 15.8286 13.1992
H 3.16617 17.0858 14.7248
H 4.41499 15.7452 14.4767
H 4.40286 17.1089 13.3469
H 3.18767 15.9954 15.9571
H 3.22305 17.1353 17.0943
H 4.50729 15.8442 17.0947
H 4.53532 17.2322 15.8928
H 3.21069 15.7975 18.3026
H 3.1881 17.0933 19.5648
H 4.43812 15.8253 19.6082
H 4.55273 17.1965 18.4601
H 3.1359 15.8096 20.7926
H 3.33537 17.1574 22.2199
H 4.34629 15.7594 22.2801
H 4.38985 17.0297 21.0146
H 3.17106 18.402 0.685802
H 3.2226 19.6709 1.88575
H 4.51941 18.4069 1.84841
H 4.62961 19.8025 0.556453
H 3.11111 18.4237 3.13329
H 3.16944 19.7316 4.39406
H 4.57483 18.4278 4.47942
H 4.39186 19.5349 3.15427
H 3.22915 18.2619 5.69918
H 3.19693 19.808 6.94746
H 4.44653 18.5109 6.90088
H 4.42012 19.6726 5.60653
H 3.00717 18.5136 8.10418
H 3.15711 19.625 9.46051
H 4.23181 18.2703 9.59127
H 4.32897 19.6797 8.25805
H 2.99212 18.2836 10.8002
H 3.16175 19.6845 12.0385
H 4.32798 18.4212 12.0656
H 4.35352 19.4577 10.7926
H 3.24832 18.2571 13.2955
H 3.06584 19.6911 14.5333
H 4.37195 18.4402 14.5279
H 4.31006 19.6354 13.26
H 3.19757 18.3741 15.77
H 3.09707 19.6857 17.1211
H 4.59136 18.4545 17.0246
H 4.37757 19.718 15.8596
H 3.179 18.5125 18.306
H 3.1736 19.6166 19.6899
H 4.37404 18.4885 19.6899
H 4.57028 19.6266 18.3827
H 3.0189 18.4001 20.818
H 3.15466 19.6161 22.1096
H 4.44077 18.46 22.2126
H 4.54915 19.7042 20.9172
H 3.28601 20.8391 0.729978
H 3.28013 22.2538 1.91799
H 4.56849 20.8781 1.96406
H 4.36274 22.2079 0.673295
H 3.17594 20.8941 3.06621
H 3.26915 22.1851 4.37583
H 4.45831 20.8842 4.41936
H 4.56644 21.9964 3.16269
H 3.0863 21.0942 5.84731
H 3.25793 22.2818 7.05802
H 4.38154 20.8729 7.03543
H 4.47828 22.2297 5.68956
H 3.21112 20.8576 8.3174
H 3.28597 22.1385 9.28389
H 4.42039 20.6941 9.6499
H 4.68526 22.119 8.22113
H 3.28393 21.0243 10.7453
H 3.43015 22.087 12.1486
H 4.39248 20.7504 12.0546
H 4.44011 22.1751 10.673
H 3.23608 20.9706 13.262
H 3.35929 22.3225 14.4773
H 4.49804 21.1054 14.6255
H 4.52488 22.1519 13.2311
H 3.13769 20.898 15.8229
H 3.14699 22.1702 17.1175
H 4.49254 20.9984 17.0644
H 4.47131 22.4395 15.8768
H 3.30799 20.872 18.2779
H 3.18319 22.1327 19.6256
H 4.41283 20.962 19.7393
H 4.59984 22.0741 18.4325
H 3.0496 20.9088 20.8508
H 3.06403 22.1904 22.2994
H 4.31625 20.9677 22.2025
H 4.31137 22.2692 21.0597
H 5.49287 0.555094 0.77895
H 5.71555 1.95657 1.79371
H 6.92048 0.6861 1.79897
H 6.86228 1.96123 0.526212
H 5.62477 0.768056 3.19036
H 5.66232 1.92939 4.56256
H 6.87563 0.632768 4.28706
H 6.81808 1.90405 3.0869
H 5.6499 0.644598 5.75232
H 5.78725 2.0392 6.93963
H 7.01196 0.775011 6.97549
H 7.10038 1.93999 5.62401
H 5.76348 0.701863 8.14207
H 5.7345 2.01837 9.53472
H 6.84113 0.705692 9.45846
H 7.02889 2.00177 8.13688
H 5.75008 0.637352 10.8339
H 5.56313 1.87944 11.8229
H 6.97103 0.728061 12.1025
H 6.98356 2.0059 10.6408
H 5.79631 0.646671 13.2286
H 5.78153 1.92859 14.6271
H 6.91624 0.565443 14.5943
H 6.94905 1.97284 13.1948
H 5.82285 0.705941 15.8782
H 5.78074 1.98362 17.0419
H 7.01997 0.681032 17.1788
H 7.05896 1.93437 15.8261
H 5.71876 0.569368 18.3344
H 5.58539 1.87654 19.6628
H 7.06409 0.674744 19.573
H 6.9347 1.92648 18.521
H 5.63243 0.567089 20.9258
H 5.65788 1.93674 22.2865
H 7.01529 0.6134 22.2332
H 6.96282 1.93202 21.0845
H 5.74002 3.18955 0.654326
H 5.73965 4.43579 1.89825
H 7.03384 3.13674 1.88973
H 7.06395 4.50762 0.591877
H 5.62066 3.19149 3.25913
H 5.61565 4.48465 4.36696
H 6.96894 3.10951 4.49677
H 6.89291 4.43481 3.14337
H 5.65992 3.22227 5.54754
H 5.80946 4.42021 7.07516
H 7.09654 3.16859 6.88636
H 7.07465 4.59328 5.67318
H 5.68193 3.19878 8.25189
H 5.73714 4.46704 9.41577
H 7.01447 3.14717 9.4346
H 7.01396 4.45528 8.23238
H 5.77983 3.06887 10.6272
H 5.6862 4.34508 11.8274
H 7.00243 3.13075 11.9631
H 7.01166 4.33358 10.6255
H 5.67662 3.11817 13.2948
H 5.74089 4.43388 14.5034
H 7.00214 3.14907 14.5371
H 6.95368 4.35795 13.1847
H 5.72786 3.19931 15.934
H 5.86401 4.42335 17.1492
H 7.2289 3.20096 17.217
H 7.0841 4.44358 15.909
H 5.71936 3.16677 18.3508
H 5.70836 4.34337 19.6647
H 6.9381 3.12171 19.8231
H 7.00031 4.36224 18.5408
H 5.74896 3.05955 21.0633
H 5.67196 4.53159 22.2979
H 7.03827 3.3741 22.2625
H 6.88728 4.38823 20.9055
H 5.87187 5.70425 0.722759
H 5.76535 6.92514 1.90993
H 7.07952 5.78297 2.07153
H 6.92449 7.0657 0.564236
H 5.73668 5.68909 3.17748
H 5.80152 6.93508 4.41779
H 7.03887 5.64952 4.41393
H 7.07329 7.07939 3.33708
H 5.86574 5.7369 5.60285
H 5.80895 6.9123 7.01855
H 7.0893 5.74772 6.9638
H 7.07254 6.96612 5.7303
H 5.82613 5.70964 8.17603
H 5.65979 6.89617 9.53023
H 6.99069 5.63891 9.63174
H 7.06928 7.0003 8.41186
H 5.84335 5.64575 10.7691
H 5.57913 6.88523 12.085
H 6.96996 5.81065 11.9956
H 6.92932 7.09558 10.7326
H 5.70398 5.78887 13.3895
H 5.65964 6.82614 14.6805
H 6.94593 5.55746 14.4747
H 6.95288 6.94056 13.208
H 5.69669 5.74289 15.924
H 5.72574 6.97304 17.1531
H 6.89863 5.69113 17.1528
H 6.98432 6.98059 15.7119
H 5.72337 5.56664 18.356
H 5.59183 6.92844 19.7274
H 6.94009 5.75484 19.6957
H 6.90141 7.13978 18.5782
H 5.73984 5.71904 21.129
H 5.7251 7.0802 22.3747
H 7.0554 5.62291 22.1039
H 6.9049 7.01396 21.0553
H 5.77399 8.37157 0.751727
H 5.8354 9.51569 1.90112
H 7.08677 8.19118 1.97789
H 7.08995 9.49889 0.603516
H 5.75866 8.21393 3.29916
H 5.66449 9.44728 4.64855
H 6.99524 8.30271 4.45645
H 7.06473 9.65625 3.25775
H 5.73549 8.20974 5.68588
H 5.6492 9.52428 6.8449
H 7.04992 8.33732 7.03232
H 6.9503 9.41903 5.69219
H 5.72119 8.05956 8.34964
H 5.59696 9.54735 9.38975
H 6.94628 8.31939 9.57713
H 6.96604 9.46883 8.24322
H 5.66913 8.22762 10.6737
H 5.66266 9.63272 11.959
H 6.76061 8.2733 12.0036
H 6.95236 9.70386 10.7559
H 5.74324 8.25571 13.4291
H 5.52558 9.52758 14.4505
H 6.98804 8.14612 14.5429
H 7.03378 9.50732 13.2248
H 5.62393 8.27003 15.884
H 5.65648 9.48815 17.0919
H 6.9984 8.19441 17.1113
H 6.87774 9.35592 15.6805
H 5.73443 8.29874 18.3244
H 5.55765 9.45952 19.659
H 6.90559 8.15171 19.7657
H 6.9877 9.5218 18.4964
H 5.55671 8.24255 20.8893
H 5.5574 9.47061 22.2543
H 6.97127 8.18485 22.2025
H 6.70013 9.54269 20.9017
H 5.75263 10.7695 0.618364
H 5.79366 12.1589 2.00546
H 7.0787 10.7627 1.97688
H 6.95415 12.0857 0.537178
H 5.65465 10.7385 3.0541
H 5.662 12.0573 4.38477
H 6.9559 10.6982 4.62788
H 6.8943 11.9456 3.25487
H 5.64779 10.7459 5.76865
H 5.78326 12.2198 6.90898
H 6.89124 10.8439 7.06721
H 7.05939 12.1133 5.71784
H 5.71565 10.8002 8.1366
H 5.73012 12.1339 9.39101
H 6.97259 10.753 9.48505
H 7.09227 12.2509 8.29194
H 5.75428 10.7089 10.7082
H 5.59478 12.014 12.088
H 6.90703 10.9356 12.0337
H 7.00016 12.1173 10.9334
H 5.76254 10.7507 13.2128
H 5.67789 12.1452 14.5085
H 7.04816 10.7997 14.5879
H 6.91968 12.0906 13.4
H 5.58799 10.7138 15.8948
H 5.7317 12.0577 17.0105
H 6.85234 10.6743 16.948
H 6.91211 12.01 15.783
H 5.65107 10.8721 18.4276
H 5.5894 12.0746 19.7067
H 6.8625 10.8696 19.7601
H 6.8474 11.985 18.4296
H 5.64357 10.7925 20.8536
H 5.68722 12.1228 22.1326
H 6.80585 10.8137 22.1208
H 6.87997 12.1634 20.8132
H 5.63904 13.2534 0.795376
H 5.72499 14.6131 1.93502
H 7.02661 13.2974 1.91613
H 6.98264 14.4299 0.464841
H 5.72667 13.3571 3.17326
H 5.69741 14.5632 4.50255
H 6.95906 13.2297 4.37673
H 7.16176 14.5538 3.0989
H 5.71073 13.4697 5.58532
H 5.69945 14.6328 7.01013
H 6.88379 13.4367 6.93637
H 7.03729 14.6355 5.7081
H 5.4786 13.3885 8.37593
H 5.60431 14.6123 9.49787
H 6.82432 13.3185 9.56914
H 7.0386 14.659 8.1549
H 5.70061 13.3774 10.7768
H 5.68541 14.4422 12.0061
H 7.03487 13.3685 12.0485
H 6.80964 14.6388 10.7177
H 5.69892 13.3568 13.2168
H 5.61581 14.4755 14.5419
H 6.9813 13.3935 14.5205
H 7.08994 14.5695 13.2577
H 5.68175 13.2969 15.6812
H 5.6805 14.5472 17.1935
H 6.99289 13.171 16.8704
H 6.83989 14.5642 15.8801
H 5.60624 13.2769 18.3273
H 5.58797 14.5105 19.6785
H 6.89139 13.3733 19.5423
H 7.01337 14.4531 18.2931
H 5.72284 13.284 21.0572
H 5.68288 14.6077 22.1899
H 6.85896 13.3098 22.1555
H 6.86179 14.5937 20.8293
H 5.74354 15.9053 0.516485
H 5.72251 17.1112 1.89682
H 6.99071 15.7856 1.94768
H 7.05386 17.1466 0.674405
H 5.71749 15.884 3.19785
H 5.68045 17.1143 4.36061
H 7.00069 15.8597 4.44424
H 7.01797 17.0899 3.18389
H 5.72631 15.8808 5.80544
H 5.61679 17.2488 7.09886
H 6.95058 15.9052 6.97599
H 7.02297 17.1214 5.8197
H 5.69529 15.8484 8.19304
H 5.68755 17.2561 9.32167
H 6.95633 15.8976 9.47793
H 6.93305 17.0804 8.12718
H 5.7751 15.8879 10.7906
H 5.64977 17.0938 12.1453
H 6.84927 15.9078 12.0565
H 6.80866 17.1172 10.643
H 5.61131 15.748 13.1898
H 5.6675 17.0593 14.589
H 6.84131 15.8985 14.6394
H 7.0887 16.9638 13.2105
H 5.65937 15.7041 15.7761
H 5.65018 17.0857 17.1779
H 6.91563 15.815 17.0029
H 6.96828 17.0451 15.9371
H 5.6649 15.8829 18.5157
H 5.66662 17.1596 19.7946
H 7.03826 15.7867 19.6633
H 6.95362 17.0603 18.3938
H 5.65476 15.7869 20.8152
H 5.70124 17.1714 22.1479
H 7.03444 15.6334 22.1427
H 6.87484 16.9373 21.0091
H 5.68937 18.3709 0.631763
H 5.63782 19.6561 1.88473
H 7.07959 18.2745 1.95136
H 6.97254 19.6619 0.797239
H 5.75102 18.4617 3.03139
H 5.78823 19.8113 4.37154
H 6.87712 18.4061 4.33391
H 7.03681 19.6905 3.10157
H 5.7278 18.3503 5.6534
H 5.72186 19.6818 6.81759
H 6.87169 18.2542 7.03561
H 7.01649 19.7276 5.73198
H 5.7019 18.4359 8.30648
H 5.62195 19.6921 9.44456
H 6.98788 18.3524 9.58842
H 6.9061 19.6297 8.23197
H 5.63347 18.3041 10.8434
H 5.88204 19.5246 12.0501
H 7.04658 18.3409 12.2385
H 6.90331 19.6109 10.8498
H 5.61614 18.4447 13.3434
H 5.49275 19.6907 14.5683
H 6.85137 18.437 14.6859
H 6.98595 19.5364 13.4076
H 5.66929 18.3746 15.823
H 5.6277 19.6463 17.0049
H 6.97279 18.4164 17.2036
H 6.84799 19.4711 15.8514
H 5.72804 18.4225 18.5225
H 5.66934 19.7802 19.7443
H 6.97328 18.4762 19.7583
H 7.01103 19.6141 18.5161
H 5.65973 18.3466 20.9288
H 5.89712 19.6542 22.3474
H 6.96871 18.281 22.1972
H 6.89509 19.6069 21.0379
H 5.78888 20.9663 0.743146
H 5.69616 22.2455 1.94681
H 7.06332 20.9568 1.97445
H 7.04074 22.25 0.649039
H 5.70334 20.9976 3.27969
H 5.64563 22.1997 4.38133
H 6.99147 21.0247 4.30346
H 6.97412 22.4108 3.08047
H 5.72206 20.9508 5.66179
H 5.86909 22.268 6.91821
H 7.00346 20.9507 7.00929
H 6.90572 22.2269 5.57859
H 5.70574 20.8844 8.22379
H 5.59565 22.0619 9.51121
H 6.94259 20.8659 9.50824
H 6.83072 22.1884 8.2044
H 5.64093 20.8873 10.9105
H 5.67281 22.1944 11.9186
H 6.96382 20.8892 12.2048
H 6.93706 22.0895 10.7065
H 5.50166 20.7417 13.2829
H 5.73269 22.2473 14.6239
H 6.92694 20.8882 14.5483
H 6.81813 22.0917 13.3061
H 5.76089 20.8378 15.8131
H 5.80832 22.1812 17.0879
H 6.90661 20.778 16.992
H 6.95927 22.2737 16.0389
H 5.78253 20.8933 18.3988
H 5.84963 22.027 19.7857
H 7.08122 20.7748 19.7095
H 6.95837 22.2356 18.2774
H 5.67722 20.9008 20.9617
H 5.80554 22.1978 22.1212
H 7.12248 20.8756 22.1354
H 6.97083 22.3551 20.9477
H 8.42108 0.717558 0.75605
H 8.27019 1.89983 1.92306
H 9.56457 0.645292 1.83354
H 9.63579 1.97609 0.60557
H 8.33806 0.67282 3.21952
H 8.40437 1.8641 4.5299
H 9.69679 0.54892 4.40065
H 9.59836 1.85123 3.12211
H 8.272 0.677891 5.73768
H 8.25466 1.97435 6.90507
H 9.56539 0.669376 7.02372
H 9.53006 1.84867 5.71869
H 8.2024 0.484646 8.29102
H 8.27359 1.92218 9.51812
H 9.59855 0.601368 9.54129
H 9.65924 1.81561 8.33932
H 8.12441 0.674767 10.6631
H 8.19903 1.91868 11.909
H 9.46779 0.60054 11.886
H 9.58662 1.86988 10.7467
H 8.16219 0.505281 13.2946
H 8.28293 1.82044 14.5893
H 9.49738 0.755022 14.4727
H 9.38859 1.79362 13.2017
H 8.26721 0.634037 15.7311
H 8.36645 1.97143 17.2695
H 9.41566 0.644833 17.1012
H 9.55349 1.84003 15.8348
H 8.37891 0.501759 18.4929
H 8.3192 2.01427 19.6285
H 9.60221 0.664557 19.8496
H 9.55857 1.78809 18.4064
H 8.14608 0.732216 20.8592
H 8.20174 1.94522 22.2736
H 9.58639 0.600712 22.1953
H 9.50196 1.8664 21.082
H 8.32985 3.02876 0.640877
H 8.37784 4.44291 1.92469
H 9.62182 3.19923 1.88191
H 9.55901 4.41571 0.78555
H 8.28092 3.08058 3.24835
H 8.37673 4.40596 4.47921
H 9.45355 3.13489 4.57668
H 9.60459 4.35409 3.18686
H 8.35082 3.30263 5.79351
H 8.31005 4.47219 7.11707
H 9.68883 3.19288 6.92312
H 9.53386 4.62058 5.6894
H 8.34287 3.18659 8.24632
H 8.32447 4.4018 9.47851
H 9.51594 3.13062 9.56827
H 9.55139 4.42174 8.23565
H 8.26857 3.29166 10.7085
H 8.1342 4.43771 12.0573
H 9.54829 2.98738 12.0447
H 9.42837 4.48593 10.7185
H 8.28864 3.16606 13.3204
H 8.17787 4.31333 14.6371
H 9.44778 3.16573 14.4891
H 9.6999 4.43043 13.2932
H 8.46548 3.12777 15.7264
H 8.217 4.41006 17.109
H 9.63535 3.2054 17.2155
H 9.53548 4.50615 15.9272
H 8.29695 3.22808 18.4725
H 8.32483 4.52003 19.6627
H 9.58073 3.13008 19.7902
H 9.56224 4.49498 18.3959
H 8.29147 3.16341 20.983
H 8.37226 4.35854 22.332
H 9.50709 3.23483 22.2176
H 9.66821 4.58592 20.9616
H 8.24026 5.71636 0.694256
H 8.29421 6.94591 1.99422
H 9.53118 5.83021 2.00989
H 9.543 7.01598 0.713055
H 8.30874 5.71637 3.25768
H 8.33628 7.00795 4.63588
H 9.62815 5.69766 4.42854
H 9.61772 6.91289 3.33558
H 8.24192 5.75625 5.59159
H 8.11618 6.94325 7.028
H 9.53772 5.88778 7.00574
H 9.53404 7.02397 5.72807
H 8.28141 5.61713 8.32035
H 8.19351 7.0278 9.40687
H 9.45959 5.55181 9.52974
H 9.5442 6.89168 8.19926
H 8.30559 5.56691 10.9399
H 8.26051 7.04832 11.9974
H 9.51305 5.63323 12.1418
H 9.56264 6.91758 10.7763
H 8.23516 5.71587 13.2269
H 8.20472 6.89032 14.5275
H 9.45794 5.73665 14.5427
H 9.60393 6.96391 13.3581
H 8.15376 5.75691 15.8412
H 8.26873 7.06469 17.1279
H 9.488 5.78203 17.2427
H 9.53653 6.94114 15.8629
H 8.09395 5.65388 18.4114
H 8.10466 6.99022 19.704
H 9.43889 5.71706 19.6637
H 9.56019 6.97723 18.3909
H 8.25521 5.72917 20.9099
H 8.27518 6.89274 22.3243
H 9.60928 5.61191 22.2514
H 9.29097 7.03232 21.0421
H 8.31412 8.32359 0.699951
H 8.23723 9.43614 1.88967
H 9.64505 8.15313 2.01084
H 9.50223 9.58127 0.65496
H 8.37994 8.17399 3.20918
H 8.23152 9.51852 4.42494
H 9.71507 8.43123 4.51591
H 9.51686 9.50634 3.27145
H 8.30048 8.3203 5.61698
H 8.3568 9.46041 7.08681
H 9.54537 8.24721 6.95814
H 9.47843 9.58772 5.6861
H 8.35163 8.28071 8.30019
H 8.31425 9.5652 9.54126
H 9.48903 8.23916 9.63315
H 9.53126 9.47734 8.34134
H 8.23914 8.32782 10.7123
H 8.14786 9.5513 11.9409
H 9.34425 8.11169 12.1958
H 9.60954 9.48665 10.9479
H 8.2075 8.16975 13.259
H 8.16815 9.47771 14.459
H 9.57111 8.16632 14.6554
H 9.4531 9.44476 13.3751
H 8.22163 8.2537 15.7938
H 8.07426 9.43927 17.0265
H 9.50616 8.19566 17.1101
H 9.33276 9.43772 15.6956
H 8.25905 8.31097 18.3593
H 7.99481 9.48489 19.6139
H 9.40892 8.2279 19.774
H 9.44586 9.47942 18.3536
H 8.1695 8.33874 20.9408
H 8.23649 9.60217 21.9899
H 9.44503 8.19694 22.3146
H 9.42778 9.55873 20.9627
H 8.24227 10.8442 0.629578
H 8.23815 12.0067 2.0285
H 9.42214 10.7322 2.01947
H 9.39147 11.9921 0.758657
H 8.3712 10.77 3.25276
H 8.21421 12.0941 4.39477
H 9.42191 10.7421 4.51439
H 9.58558 12.1283 3.16867
H 8.2426 10.9167 5.74678
H 8.18983 12.0123 6.98526
H 9.38382 10.799 6.93585
H 9.63017 12.1954 5.63752
H 8.13355 10.6425 8.36862
H 8.26636 11.9348 9.7301
H 9.55579 10.7914 9.62863
H 9.47249 11.9837 8.34026
H 8.24957 10.8388 10.8548
H 8.23964 12.0726 12.1357
H 9.52841 10.7888 12.0545
H 9.61394 12.0135 10.8561
H 8.13522 10.8051 13.3637
H 8.32195 12.0461 14.3867
H 9.41322 10.641 14.6289
H 9.55894 11.9948 13.2855
H 8.27945 10.7286 15.8246
H 8.22136 11.9667 17.0991
H 9.52994 10.7227 17.0318
H 9.58385 12.0495 15.757
H 8.14931 10.8964 18.2122
H 8.23419 12.0341 19.6231
H 9.36293 10.7035 19.5284
H 9.58761 11.9031 18.3497
H 8.12879 10.6163 20.9625
H 8.17037 11.8986 22.0585
H 9.50914 10.9241 22.0282
H 9.42783 12.0405 20.8714
H 8.09306 13.2946 0.673575
H 8.23821 14.6035 1.86005
H 9.55387 13.3272 1.85384
H 9.45571 14.4795 0.477736
H 8.21498 13.311 3.18704
H 8.36776 14.5865 4.49348
H 9.49477 13.2671 4.21891
H 9.57368 14.6428 3.13559
H 8.26557 13.2967 5.637
H 8.31218 14.551 7.05031
H 9.30661 13.2511 6.96969
H 9.65006 14.575 5.73369
H 8.40781 13.2484 8.23258
H 8.13134 14.639 9.5252
H 9.5381 13.3078 9.52066
H 9.54752 14.5221 8.19338
H 8.25338 13.3906 10.7864
H 8.3087 14.6823 12.0264
H 9.44822 13.2738 12.0615
H 9.61882 14.6302 10.7407
H 8.30586 13.5573 13.2838
H 8.21005 14.6791 14.8251
H 9.47151 13.4078 14.5873
H 9.63276 14.5574 13.421
H 8.17663 13.1699 15.7318
H 8.29946 14.439 17.1243
H 9.4741 13.2737 17.1817
H 9.41704 14.6397 15.9317
H 8.15348 13.1489 18.3053
H 8.33213 14.4183 19.5439
H 9.43424 13.1678 19.5786
H 9.50519 14.5602 18.2753
H 8.27234 13.3118 20.9544
H 8.25947 14.5014 22.0701
H 9.45573 13.2143 22.195
H 9.60927 14.7071 20.95
H 8.24563 15.7118 0.569545
H 8.30843 16.9953 1.9715
H 9.65836 15.7257 1.79826
H 9.5646 17.0579 0.687934
H 8.26792 15.8871 3.11731
H 8.15572 17.0995 4.42126
H 9.5054 15.8111 4.25947
H 9.49203 17.1297 3.06135
H 8.16718 15.923 5.73186
H 8.41856 17.2888 6.9032
H 9.52452 15.876 6.90653
H 9.49319 17.1991 5.57871
H 8.22739 15.8473 8.08833
H 8.32415 16.9602 9.49166
H 9.41695 15.7607 9.27654
H 9.42588 17.2272 8.21817
H 8.15985 15.8821 10.7974
H 8.13436 17.139 11.8621
H 9.62788 15.933 12.1478
H 9.42714 17.0794 10.8498
H 8.22215 15.8611 13.363
H 8.25092 17.1071 14.6386
H 9.43897 15.9633 14.6693
H 9.52794 17.1016 13.3423
H 8.0398 15.9433 15.8877
H 8.23191 17.2482 17.2181
H 9.45572 15.8724 17.1209
H 9.43073 17.1049 15.954
H 8.2337 15.8898 18.2619
H 8.18743 17.0384 19.778
H 9.36339 15.7676 19.7556
H 9.51489 17.2673 18.4517
H 8.27001 15.8645 20.8831
H 8.18999 17.0826 22.1057
H 9.62168 15.7669 22.068
H 9.51825 17.148 20.9659
H 8.27781 18.3019 0.636848
H 8.35771 19.7015 2.01437
H 9.44383 18.2197 1.83281
H 9.50024 19.7503 0.651256
H 8.33108 18.3673 3.19169
H 8.27311 19.7647 4.48873
H 9.61901 18.4527 4.46552
H 9.50029 19.7028 3.20789
H 8.14892 18.3512 5.68781
H 8.0779 19.4805 6.99087
H 9.49822 18.3898 7.04796
H 9.4756 19.5918 5.76981
H 8.11445 18.2845 8.20431
H 8.22564 19.6337 9.59832
H 9.42687 18.2804 9.42988
H 9.4521 19.4481 8.22339
H 8.30587 18.2163 10.7201
H 8.18442 19.5186 12.0151
H 9.47857 18.1926 12.0288
H 9.55336 19.5449 10.8435
H 8.46001 18.3911 13.3998
H 8.18081 19.7752 14.5989
H 9.4273 18.2848 14.5873
H 9.58155 19.7292 13.2631
H 8.32672 18.3849 15.8249
H 8.3184 19.6965 17.1001
H 9.3853 18.3448 17.0654
H 9.47761 19.7155 15.8376
H 8.06762 18.357 18.5474
H 8.33503 19.5429 19.7632
H 9.64312 18.3931 19.6241
H 9.41192 19.7516 18.4714
H 8.23364 18.3966 20.9321
H 8.24532 19.657 22.2453
H 9.42831 18.2852 22.0863
H 9.57874 19.7404 21.1199
H 8.23895 21.0393 0.575941
H 8.30024 22.3496 1.80026
H 9.51247 21.0508 1.90487
H 9.57016 22.3785 0.731826
H 8.30349 20.8821 3.20271
H 8.18071 22.3037 4.40459
H 9.5853 21.092 4.50165
H 9.44963 22.2632 3.32816
H 8.1666 20.9576 5.68206
H 8.27168 22.2473 7.00395
H 9.40075 20.8708 6.98373
H 9.5351 22.1769 5.74002
H 8.28443 20.7936 8.29633
H 8.19935 22.1993 9.48936
H 9.48588 20.7538 9.52082
H 9.42123 22.0852 8.38554
H 8.09046 20.9247 10.8398
H 8.1061 22.3047 11.8839
H 9.52295 20.9181 12.0512
H 9.51389 22.0615 10.8517
H 8.25012 20.8427 13.2459
H 8.07736 21.9776 14.5893
H 9.49014 20.9013 14.4184
H 9.48375 22.1199 13.3446
H 8.07591 20.912 15.7463
H 8.23509 22.081 17.0879
H 9.52822 20.871 17.0094
H 9.45797 22.213 15.8296
H 8.15434 20.9224 18.3668
H 8.24181 22.2508 19.6363
H 9.56166 20.9869 19.6732
H 9.56273 22.2562 18.3234
H 8.17562 20.9371 20.9361
H 8.26876 22.2418 22.303
H 9.4921 20.9166 22.2277
H 9.56307 22.2583 21.0856
H 10.8747 0.651388 0.687641
H 10.8648 2.01399 2.08206
H 12.0349 0.728805 1.93389
H 12.0594 2.04376 0.557088
H 10.7662 0.797424 3.16837
H 10.7975 1.97018 4.54833
H 12.0761 0.654946 4.42564
H 12.1476 1.87415 3.15964
H 10.7704 0.698424 5.67453
H 10.8709 1.92396 6.97194
H 12.0182 0.595238 7.0506
H 11.9783 1.97475 5.69828
H 10.8411 0.585507 8.17971
H 10.7462 1.84255 9.44311
H 12.1269 0.527297 9.41035
H 12.1365 1.82625 8.35357
H 10.7197 0.666658 10.8015
H 10.8686 1.91108 12.0171
H 11.9021 0.561103 11.9467
H 11.9606 1.84864 10.7156
H 10.8957 0.53567 13.2334
H 10.7013 1.77619 14.5153
H 12.1014 0.655572 14.5766
H 12.0308 1.93174 13.3835
H 10.7149 0.660779 15.7934
H 10.591 1.90292 17.1165
H 12.0062 0.608042 17.0285
H 12.0355 1.8658 15.921
H 10.7693 0.768352 18.3048
H 10.8169 1.80445 19.7874
H 12.1361 0.600179 19.5112
H 11.9548 1.84425 18.3379
H 10.8589 0.651281 20.998
H 10.9024 2.01421 22.3332
H 12.1061 0.772266 22.1581
H 12.2342 2.00796 20.9304
H 10.8516 3.2647 0.668351
H 10.8855 4.44576 1.94251
H 12.0975 3.15404 1.92004
H 12.2859 4.5986 0.657946
H 11.0444 3.22911 3.19992
H 10.9709 4.49942 4.52633
H 12.0208 3.20078 4.46711
H 12.0952 4.70579 3.0634
H 10.8201 3.12388 5.65847
H 10.8741 4.56339 7.05355
H 11.9728 3.17709 7.01675
H 12.0501 4.56351 5.78197
H 10.8715 3.22126 8.21109
H 10.7792 4.32669 9.5246
H 11.9583 3.08628 9.4993
H 12.1248 4.48897 8.23909
H 10.806 3.24162 10.7937
H 10.6292 4.46812 11.8559
H 12.0434 3.12028 12.0347
H 12.1043 4.44058 10.837
H 10.8315 3.20463 13.227
H 10.7597 4.42236 14.5749
H 12.0632 3.12591 14.4942
H 12.0959 4.43685 13.3145
H 10.7195 3.08277 15.6926
H 10.6083 4.36421 16.9828
H 12.0691 3.06195 17.0833
H 11.9819 4.22871 15.8609
H 10.8763 3.07 18.3524
H 10.5627 4.4089 19.6571
H 11.933 3.21726 19.6751
H 11.9162 4.44771 18.3026
H 10.7486 3.10569 20.8856
H 10.7461 4.39959 22.2061
H 12.1429 3.25964 22.1207
H 12.0005 4.49316 20.9197
H 10.6487 5.74236 0.56784
H 10.8041 7.05193 1.95084
H 12.2426 5.7143 1.78084
H 11.9536 6.97303 0.638114
H 10.7403 5.69262 3.27171
H 10.7769 6.89436 4.35467
H 12.0762 5.73901 4.612
H 12.0289 7.14119 3.14821
H 10.8782 5.77745 5.70893
H 10.8722 7.05071 7.05704
H 12.059 5.67746 7.03082
H 12.0316 6.98563 5.66894
H 10.8037 5.76158 8.29433
H 10.8615 6.91051 9.70432
H 11.9937 5.63625 9.71483
H 11.9672 7.00808 8.45501
H 10.7761 5.68981 10.8293
H 10.7404 6.85308 12.046
H 11.9583 5.65136 12.1501
H 11.9493 6.93127 10.7643
H 10.8258 5.64934 13.3995
H 10.8358 6.96879 14.6311
H 12.1576 5.72362 14.6124
H 12.0224 7.0634 13.2836
H 10.6519 5.71529 15.8357
H 10.8028 6.93721 17.1001
H 12.1006 5.61957 17.0073
H 12.0141 6.9413 15.7414
H 10.8699 5.72248 18.3976
H 10.6782 7.11908 19.6601
H 12.0741 5.73824 19.6034
H 12.0053 6.92724 18.3176
H 10.8553 5.84563 20.7901
H 10.8156 6.90383 22.1684
H 12.0959 5.80394 22.1736
H 12.0843 7.04136 21.048
H 10.7756 8.18449 0.617365
H 10.7872 9.53286 2.00079
H 12.0977 8.35755 2.01557
H 12.043 9.42929 0.692937
H 10.8388 8.19913 3.18758
H 10.891 9.61678 4.56178
H 12.2099 8.37731 4.3542
H 12.1402 9.57406 3.22892
H 10.8022 8.1692 5.81323
H 10.7547 9.43717 6.90664
H 12.1029 8.38385 7.08911
H 12.0197 9.57366 5.7376
H 10.8106 8.2543 8.31196
H 10.7574 9.38543 9.50069
H 11.9775 8.30923 9.60383
H 12.1609 9.64298 8.34244
H 10.7967 8.32389 10.9043
H 10.7002 9.41823 12.0615
H 12.1429 8.27081 12.0662
H 12.1106 9.5969 10.7917
H 10.8711 8.18236 13.3109
H 10.7483 9.49602 14.5534
H 12.01 8.38093 14.5732
H 11.9611 9.53651 13.3487
H 10.8077 8.23267 15.8971
H 10.7482 9.44491 17.2386
H 12.0563 8.16597 17.0302
H 11.9399 9.69108 15.8641
H 10.7754 8.26868 18.257
H 10.7014 9.45988 19.6894
H 11.9983 8.2026 19.648
H 11.9356 9.46046 18.3852
H 10.8152 8.26316 20.9046
H 10.5958 9.60028 22.159
H 11.9917 8.42368 22.3051
H 11.9838 9.64818 20.961
H 10.7564 10.817 0.448121
H 10.8754 11.888 1.89371
H 12.0331 10.6552 1.97707
H 12.0181 12.0459 0.563854
H 10.8051 10.8268 3.31166
H 10.6839 12.1855 4.34962
H 12.1539 10.9182 4.5968
H 12.0927 11.9328 3.08712
H 10.8397 10.8357 5.86309
H 10.8014 12.0928 7.07355
H 12.0685 10.8244 7.08934
H 12.141 12.1542 5.73135
H 10.8138 10.7258 8.28291
H 10.808 12.0647 9.49676
H 12.0688 10.8336 9.4434
H 12.0927 12.1647 8.26032
H 10.8355 10.9081 10.6757
H 10.9032 12.1469 12.2169
H 12.0416 10.9574 12.0561
H 12.1002 11.9902 10.6255
H 10.8143 10.7025 13.2868
H 10.8066 12.1379 14.6204
H 12.2274 10.8325 14.7046
H 12.0514 11.9527 13.363
H 10.632 10.7199 15.87
H 10.7833 12.0018 17.0643
H 12.0068 10.9531 16.9731
H 12.0542 12.0453 15.8161
H 10.7699 10.7195 18.3562
H 10.7583 11.9664 19.6739
H 12.0796 10.7372 19.507
H 12.0087 11.987 18.4418
H 10.6907 10.8324 20.9605
H 10.7202 12.0743 22.2445
H 12.1034 10.7824 22.1192
H 11.9723 11.9783 20.8674
H 10.7373 13.2147 0.545143
H 10.8075 14.4437 1.79537
H 12.0347 13.0771 1.86553
H 12.0376 14.461 0.682927
H 10.8499 13.402 3.07232
H 10.8924 14.7774 4.3969
H 12.0106 13.2746 4.2784
H 12.0842 14.5243 3.01394
H 10.8364 13.4907 5.59033
H 10.8384 14.5598 6.97925
H 12.1817 13.2305 6.91739
H 12.0719 14.5985 5.84596
H 10.7558 13.1977 8.27906
H 10.8605 14.7001 9.50671
H 12.054 13.309 9.46405
H 12.1448 14.6022 8.28451
H 10.7826 13.3812 10.8648
H 10.8438 14.5503 12.2015
H 11.9719 13.2679 12.0691
H 11.975 14.6115 10.8034
H 10.7787 13.3802 13.4409
H 10.8494 14.5951 14.5389
H 12.0942 13.3277 14.6591
H 12.0189 14.5795 13.3287
H 10.7853 13.4318 16.0336
H 10.8153 14.556 17.1921
H 12.259 13.3731 17.308
H 12.1749 14.6273 15.9206
H 10.7696 13.1857 18.5315
H 10.7096 14.6411 19.6689
H 11.9432 13.4658 19.7312
H 11.9685 14.553 18.2899
H 10.6437 13.3384 20.9777
H 10.8941 14.5116 22.199
H 12.0391 13.3445 22.1223
H 12.0509 14.8039 20.9074
H 10.8521 15.7027 0.604644
H 10.831 17.0424 1.93741
H 12.1161 15.8522 1.69443
H 12.0199 17.2499 0.641607
H 10.9575 15.8048 3.10689
H 10.7614 17.1081 4.27521
H 12.1587 15.8496 4.36816
H 12.07 17.1659 3.03706
H 10.9312 15.8314 5.74265
H 10.6728 17.0759 6.98917
H 11.9836 15.9445 7.02385
H 12.1104 17.101 5.71786
H 10.8061 15.7562 8.132
H 10.7239 17.0213 9.53035
H 12.0508 15.9058 9.49093
H 11.9706 17.1953 8.21461
H 10.7187 15.9401 10.8008
H 10.763 17.1027 12.0283
H 12.0701 15.8553 12.1561
H 12.1123 16.9693 10.8374
H 10.74 15.8227 13.4066
H 10.751 17.057 14.6104
H 11.9987 15.8751 14.593
H 12.0486 17.1077 13.3555
H 10.7732 15.7485 15.904
H 10.798 17.0811 17.1823
H 12.149 15.8962 16.9488
H 12.1514 17.1715 15.9137
H 10.6702 15.8118 18.3577
H 10.6828 17.0052 19.639
H 12.0729 15.8933 19.5135
H 11.9464 17.0804 18.462
H 10.8 15.9884 20.7978
H 10.7185 17.1061 22.249
H 12.0022 15.8677 22.255
H 11.9813 17.1096 20.9649
H 10.7805 18.4014 0.483592
H 10.6126 19.6492 1.96827
H 12.0655 18.3754 1.83522
H 12.0424 19.6636 0.672237
H 10.7204 18.4242 3.13063
H 10.7933 19.6253 4.42353
H 11.9511 18.4068 4.48019
H 12.152 19.578 3.1614
H 10.8283 18.4217 5.71119
H 10.7661 19.6736 7.06096
H 12.1136 18.3714 6.89871
H 12.0285 19.6967 5.74812
H 10.8453 18.413 8.19444
H 10.7078 19.5264 9.5198
H 12.0364 18.237 9.63667
H 11.9461 19.6826 8.18581
H 10.7591 18.4077 10.9499
H 10.8343 19.6625 12.0971
H 12.1867 18.241 12.0157
H 11.9891 19.708 10.7624
H 10.7616 18.3595 13.3028
H 10.8279 19.6227 14.6462
H 12.0388 18.4435 14.5862
H 12.09 19.6191 13.3166
H 10.7939 18.3729 15.8381
H 10.7297 19.6887 17.1588
H 12.083 18.5133 17.1683
H 12.0965 19.5992 15.7351
H 10.8032 18.4938 18.3788
H 10.7658 19.7301 19.7392
H 11.9997 18.6481 19.6632
H 12.1276 19.7574 18.2927
H 10.7669 18.3372 20.8936
H 10.8008 19.7724 22.201
H 12.0999 18.3755 22.106
H 12.0421 19.6806 20.9435
H 10.8194 21.1755 0.651647
H 10.9673 22.1921 1.94801
H 12.0766 20.8694 1.86424
H 12.047 22.2812 0.668087
H 10.8673 20.8594 3.16264
H 10.9235 22.199 4.47127
H 12.0535 21.0669 4.37114
H 12.0013 22.3781 3.15858
H 10.7814 20.868 5.74993
H 10.7453 22.2509 7.00379
H 12.1187 20.9402 7.0626
H 12.1698 22.0777 5.70466
H 10.6534 20.8777 8.34354
H 10.8938 22.2177 9.55178
H 11.9862 20.8313 9.38004
H 12.0746 22.1007 8.26219
H 10.7515 20.7146 10.779
H 10.7885 22.1003 11.9972
H 12.011 20.8665 12.0974
H 11.9463 22.1055 10.8544
H 10.7567 20.9289 13.3097
H 10.7373 22.2602 14.4433
H 11.9491 20.9742 14.5007
H 12.0915 22.1638 13.1879
H 10.6676 20.9021 15.9198
H 10.7164 22.1725 17.1786
H 12.0547 20.7594 17.0461
H 12.0188 22.1311 15.9698
H 10.7372 20.9982 18.2977
H 10.848 22.1057 19.849
H 11.99 20.829 19.6629
H 11.9253 22.1871 18.3933
H 10.9286 20.9466 20.8065
H 10.7083 22.1223 22.1957
H 12.0496 21.0698 22.1573
H 12.0594 22.2429 20.9038
H 13.3789 0.702504 0.66302
H 13.3652 1.85412 1.97519
H 14.6225 0.656123 1.85703
H 14.7462 1.94454 0.596412
H 13.3843 0.484867 3.18978
H 13.331 1.9023 4.47737
H 14.569 0.731632 4.5831
H 14.5391 1.87583 3.12209
H 13.2711 0.619969 5.63752
H 13.25 1.94449 6.95523
H 14.4798 0.564583 6.85918
H 14.4441 1.94744 5.71977
H 13.2778 0.662122 8.2031
H 13.2168 1.88968 9.3076
H 14.571 0.572423 9.51043
H 14.5599 1.85106 8.207
H 13.3444 0.674043 10.6303
H 13.3525 2.01199 12.0569
H 14.6486 0.557545 11.9303
H 14.5667 1.84704 10.6833
H 13.2907 0.676171 13.269
H 13.2267 1.79947 14.6444
H 14.4807 0.581195 14.4989
H 14.6626 1.90344 13.4007
H 13.3196 0.535693 15.9007
H 13.2305 1.96038 17.0788
H 14.6063 0.782558 16.9513
H 14.4993 1.86237 15.7288
H 13.287 0.602581 18.2312
H 13.1884 1.92751 19.4568
H 14.5631 0.738266 19.6896
H 14.5894 1.79983 18.391
H 13.274 0.589357 20.8051
H 13.3832 2.02166 22.0844
H 14.5218 0.684158 22.1121
H 14.6599 2.01866 20.9049
H 13.2846 3.2194 0.625978
H 13.3901 4.37131 1.90308
H 14.6663 3.15692 1.85289
H 14.6109 4.57692 0.594165
H 13.2514 3.27793 3.27736
H 13.3 4.41873 4.35299
H 14.4649 3.19869 4.56172
H 14.6257 4.47036 3.14855
H 13.3346 3.18775 5.66524
H 13.4374 4.50315 6.86042
H 14.6041 3.1309 6.91398
H 14.6002 4.63881 5.69979
H 13.2468 3.20437 8.22794
H 13.3843 4.52824 9.50942
H 14.5459 3.09133 9.43551
H 14.5645 4.43944 8.15951
H 13.2257 3.20308 10.6189
H 13.2722 4.2713 11.913
H 14.5572 3.08653 11.9137
H 14.556 4.39262 10.7616
H 13.2657 3.22807 13.3757
H 13.2635 4.31302 14.6048
H 14.5318 3.02246 14.4312
H 14.6192 4.46659 13.3428
H 13.2877 3.15421 15.802
H 13.3438 4.39063 17.146
H 14.5385 3.16548 17.1911
H 14.5899 4.52395 15.9058
H 13.3861 3.17878 18.3136
H 13.2152 4.36848 19.5838
H 14.6658 3.12593 19.646
H 14.6052 4.42488 18.3271
H 13.3135 3.15557 20.8224
H 13.2441 4.37306 22.149
H 14.6219 3.29168 22.1456
H 14.6355 4.49779 20.862
H 13.4031 5.81903 0.406077
H 13.4103 7.1036 1.85701
H 14.5161 5.71504 1.93587
H 14.7512 7.1182 0.624219
H 13.4132 5.8668 3.21695
H 13.2796 7.05234 4.38958
H 14.6379 5.64941 4.28921
H 14.7214 6.96169 3.14134
H 13.3563 5.93575 5.65916
H 13.1391 6.99529 7.02188
H 14.454 5.81525 6.95092
H 14.6083 7.21416 5.81819
H 13.3258 5.78141 8.21264
H 13.277 7.00526 9.71494
H 14.5338 5.72107 9.47668
H 14.4632 7.02383 8.38393
H 13.3862 5.73816 10.6935
H 13.4455 6.93678 12.1133
H 14.5242 5.68755 12.0559
H 14.6647 7.17929 10.8304
H 13.3436 5.63418 13.2935
H 13.2619 7.05284 14.6164
H 14.4524 5.68147 14.5441
H 14.5043 6.98884 13.3595
H 13.2732 5.65546 15.7039
H 13.2133 7.00334 17.022
H 14.5236 5.77158 17.1788
H 14.6364 6.89289 15.8672
H 13.2308 5.70947 18.4177
H 13.2813 6.88525 19.7116
H 14.4259 5.66311 19.6615
H 14.4733 6.94726 18.3542
H 13.3438 5.70167 20.8878
H 13.3701 7.0463 22.1483
H 14.6828 5.64743 22.1971
H 14.6558 7.05957 21.0063
H 13.1793 8.17189 0.498457
H 13.3131 9.47977 1.74779
H 14.618 8.23965 1.87023
H 14.5337 9.48154 0.74995
H 13.3257 8.37682 3.12232
H 13.3445 9.5715 4.42846
H 14.517 8.21983 4.38308
H 14.6123 9.58072 3.16894
H 13.3133 8.29961 5.62295
H 13.4779 9.5461 6.93285
H 14.5855 8.14702 6.98886
H 14.6133 9.49482 5.79456
H 13.3023 8.12327 8.33781
H 13.3743 9.60339 9.48288
H 14.5966 8.25705 9.55477
H 14.4476 9.40331 8.24257
H 13.2994 8.2591 10.7556
H 13.4224 9.6409 12.0636
H 14.4314 8.33053 12.1016
H 14.6013 9.46625 10.7164
H 13.1622 8.29359 13.3024
H 13.2941 9.4476 14.5961
H 14.5066 8.20414 14.6242
H 14.4947 9.5061 13.3696
H 13.4005 8.26789 15.8827
H 13.2111 9.50463 17.0978
H 14.5871 8.16407 17.1676
H 14.5504 9.43034 15.9128
H 13.3069 8.28564 18.3693
H 13.1009 9.527 19.6
H 14.4228 8.17486 19.7541
H 14.503 9.56152 18.4527
H 13.1612 8.38137 20.8598
H 13.5001 9.55971 22.2029
H 14.7504 8.34666 22.1975
H 14.4464 9.49037 20.736
H 13.228 10.7715 0.565943
H 13.3293 12.0147 1.74633
H 14.5608 10.7392 1.94574
H 14.6531 12.1055 0.539743
H 13.2774 10.8707 3.08889
H 13.2322 12.0295 4.43703
H 14.5273 10.7573 4.5136
H 14.5698 12.0781 3.09925
H 13.3517 10.8312 5.74761
H 13.2181 11.9643 6.93638
H 14.6555 10.823 6.94981
H 14.5422 12.1771 5.54175
H 13.4303 10.8907 8.22044
H 13.3703 12.1052 9.54095
H 14.6539 10.8488 9.50925
H 14.6785 12.0517 8.1187
H 13.2934 10.9073 10.7567
H 13.3592 12.1149 12.1761
H 14.5713 10.669 12.0811
H 14.5252 11.9673 10.7786
H 13.3119 10.7524 13.2574
H 13.3865 11.8837 14.5913
H 14.6959 10.8769 14.6846
H 14.6256 12.0036 13.3154
H 13.2437 10.9752 15.9229
H 13.2351 12.1164 17.1744
H 14.4487 10.7127 17.2335
H 14.521 11.93 15.7896
H 13.3121 10.7124 18.2949
H 13.333 12.0385 19.7491
H 14.6248 10.892 19.6366
H 14.6225 12.056 18.4466
H 13.3215 10.6881 20.889
H 13.2088 12.018 22.0326
H 14.5411 10.7353 22.2595
H 14.5257 11.9251 20.8888
H 13.2727 13.2765 0.715059
H 13.3016 14.7018 1.85785
H 14.6232 13.3511 1.72945
H 14.6123 14.4449 0.530458
H 13.2894 13.3269 3.15198
H 13.2198 14.5765 4.35608
H 14.489 13.2366 4.41232
H 14.4908 14.6009 2.95505
H 13.3822 13.4632 5.65974
H 13.2966 14.6548 6.91292
H 14.6086 13.2946 6.92366
H 14.6957 14.6022 5.74887
H 13.3004 13.4187 8.14523
H 13.2564 14.6634 9.56338
H 14.6462 13.3511 9.43209
H 14.4912 14.6442 8.17538
H 13.2675 13.2571 10.7317
H 13.2597 14.5155 12.029
H 14.5302 13.3606 12.0568
H 14.4514 14.7567 10.8012
H 13.1859 13.1797 13.3813
H 13.3388 14.4781 14.6203
H 14.5495 13.2802 14.5319
H 14.6441 14.5033 13.4276
H 13.3314 13.3636 16.0228
H 13.2268 14.5352 17.2853
H 14.5931 13.4269 17.1709
H 14.52 14.6962 15.8624
H 13.3641 13.2724 18.5211
H 13.3716 14.5372 19.7784
H 14.6417 13.24 19.7495
H 14.5239 14.5939 18.444
H 13.2046 13.3328 20.7942
H 13.3454 14.5587 22.1902
H 14.5783 13.3594 22.0616
H 14.5363 14.627 20.9215
H 13.1796 15.9354 0.592506
H 13.3237 17.0719 1.96335
H 14.6969 15.8053 1.94944
H 14.5978 16.9655 0.744764
H 13.2096 15.8678 3.27125
H 13.3064 17.3397 4.55224
H 14.6734 15.808 4.22649
H 14.4855 17.2088 3.01272
H 13.3874 15.8573 5.70626
H 13.2383 17.1342 6.95448
H 14.5513 15.8675 6.90324
H 14.6751 16.9579 5.57995
H 13.2831 15.8549 8.24871
H 13.3839 17.1639 9.42038
H 14.6149 15.9126 9.4519
H 14.5092 17.1676 8.22684
H 13.2524 15.7905 10.8846
H 13.3517 17.0513 12.1056
H 14.5152 15.905 12.2546
H 14.6468 17.0831 10.7805
H 13.1986 15.8247 13.4137
H 13.3649 17.1572 14.7245
H 14.5998 15.9287 14.7072
H 14.5433 17.1882 13.4024
H 13.3272 16.0273 15.9249
H 13.3614 17.2192 17.2759
H 14.5918 15.8016 17.1006
H 14.8744 17.0173 16.0039
H 13.3618 15.6745 18.5147
H 13.2022 17.1919 19.5679
H 14.67 15.9966 19.5577
H 14.5413 17.0484 18.411
H 13.3329 15.8634 20.8963
H 13.3057 17.1043 22.1469
H 14.7061 15.8698 22.0866
H 14.4259 17.1418 20.9279
H 13.3083 18.3531 0.737267
H 13.3777 19.7641 1.96874
H 14.5864 18.3223 1.87644
H 14.4984 19.6823 0.549569
H 13.3037 18.4773 3.19894
H 13.2792 19.7631 4.33956
H 14.6052 18.2564 4.48585
H 14.6098 19.5896 3.17641
H 13.2496 18.4531 5.70722
H 13.1976 19.5017 6.87855
H 14.7061 18.4655 6.85074
H 14.5707 19.8028 5.61532
H 13.3603 18.3591 8.25522
H 13.2388 19.508 9.5517
H 14.6204 18.4438 9.48648
H 14.5985 19.5877 8.49312
H 13.487 18.2885 10.8559
H 13.4241 19.7237 11.9322
H 14.6047 18.2924 12.0469
H 14.7602 19.5108 10.921
H 13.2719 18.3533 13.3937
H 13.3476 19.5698 14.7036
H 14.7628 18.265 14.5465
H 14.7518 19.6072 13.4203
H 13.3997 18.3061 15.7638
H 13.3533 19.6199 17.1457
H 14.5649 18.3027 17.2088
H 14.6152 19.4338 15.7687
H 13.2311 18.4183 18.4621
H 13.2901 19.5876 19.7016
H 14.5466 18.4432 19.6552
H 14.6068 19.7401 18.4561
H 13.372 18.3414 20.8621
H 13.1044 19.4837 22.2376
H 14.5182 18.4039 22.2198
H 14.5889 19.6688 20.7982
H 13.4352 20.7634 0.64506
H 13.2854 22.2039 1.84303
H 14.5683 20.9936 1.78907
H 14.6093 22.2793 0.604581
H 13.264 21.0413 3.15636
H 13.3472 22.1968 4.43492
H 14.5786 20.9048 4.24962
H 14.5238 22.1386 2.9954
H 13.1997 21.0139 5.6616
H 13.3823 22.0941 6.91788
H 14.679 20.8992 6.963
H 14.4944 22.2749 5.60699
H 13.3496 20.8932 8.22217
H 13.4284 22.1841 9.46273
H 14.5808 20.9005 9.43696
H 14.6902 22.0963 8.13954
H 13.1964 20.8824 10.7507
H 13.3657 22.2719 12.0706
H 14.521 20.8318 12.1097
H 14.5067 22.1415 10.7877
H 13.378 20.8444 13.3194
H 13.2807 22.2575 14.3417
H 14.4587 20.7986 14.7411
H 14.5725 22.0914 13.278
H 13.303 20.7648 15.8227
H 13.161 22.0761 17.0928
H 14.606 20.8657 17.0658
H 14.4623 22.1572 15.8537
H 13.2715 20.9705 18.3443
H 13.3014 22.1258 19.5619
H 14.5291 20.8592 19.7381
H 14.456 22.2344 18.4842
H 13.3146 20.9014 20.9507
H 13.2785 22.2023 22.1664
H 14.4998 20.9379 22.226
H 14.5071 22.1933 20.7796
H 15.904 0.726683 0.642219
H 15.9367 1.99564 2.08707
H 17.1047 0.602442 2.07753
H 17.0835 1.78223 0.606881
H 15.7649 0.653449 3.23784
H 15.8333 1.99691 4.39608
H 17.2471 0.794369 4.59544
H 17.2116 1.83802 3.21858
H 15.8557 0.684555 5.73402
H 15.9055 1.93265 7.03237
H 17.0908 0.691285 6.93799
H 17.2291 2.07774 5.74377
H 15.7976 0.689509 8.07676
H 15.6783 1.78122 9.43813
H 17.0962 0.679902 9.58712
H 17.0207 1.79304 8.1746
H 15.9449 0.51772 10.9174
H 15.8328 1.94914 12.0203
H 17.1607 0.634294 11.998
H 17.1508 1.88045 10.7297
H 15.8442 0.536876 13.1578
H 15.7059 1.77408 14.5007
H 16.9792 0.569206 14.5325
H 17.0289 2.04374 13.3655
H 15.8095 0.702453 15.7626
H 15.8432 1.8303 16.9926
H 17.0939 0.571303 17.0537
H 17.1206 1.9471 15.9184
H 15.839 0.613045 18.3066
H 15.8081 1.87098 19.627
H 17.1184 0.701179 19.6936
H 17.1266 2.02504 18.3194
H 15.7542 0.64725 20.9038
H 15.7659 1.96774 22.2091
H 17.1547 0.680982 22.1567
H 17.0683 1.97136 20.8308
H 15.8692 3.29376 0.613907
H 15.8895 4.49608 1.91076
H 17.1478 3.19811 1.93024
H 17.1661 4.43787 0.564567
H 15.7399 3.27323 3.25179
H 15.9225 4.39953 4.44259
H 17.2342 3.23672 4.42932
H 17.0833 4.46711 3.10344
H 15.8768 3.15854 5.65796
H 15.8022 4.41115 6.88482
H 17.1416 3.09872 6.95511
H 17.1169 4.48067 5.67668
H 15.8935 2.93549 8.21608
H 15.7834 4.46081 9.51474
H 17.0304 3.08981 9.50864
H 17.1777 4.32809 8.21784
H 15.8741 3.13849 10.7277
H 15.8378 4.38805 11.9422
H 17.0219 3.20174 12.1171
H 17.0044 4.28053 10.8442
H 15.783 3.24083 13.3553
H 15.9111 4.43204 14.5901
H 17.1648 3.0743 14.5373
H 17.0734 4.45963 13.2425
H 15.8684 3.17189 15.727
H 15.841 4.58968 17.0157
H 17.1619 3.40027 17.0331
H 17.0865 4.37211 15.7965
H 15.8396 3.17099 18.2608
H 15.8535 4.45553 19.4892
H 17.1829 3.3138 19.6339
H 17.0351 4.58576 18.3948
H 15.8944 3.19017 20.9966
H 15.9678 4.47167 22.2159
H 17.1433 3.15384 22.1514
H 17.1459 4.59813 20.9061
H 15.7736 5.83485 0.776949
H 15.961 7.01473 1.85766
H 17.0643 5.6503 1.87509
H 17.1455 6.9496 0.607733
H 15.8186 5.78013 3.2824
H 15.9128 7.01453 4.55987
H 17.2274 5.64057 4.44643
H 17.094 7.00978 3.07877
H 15.938 5.7643 5.61331
H 15.7196 6.96833 6.97825
H 17.0209 5.60626 7.0475
H 17.0423 6.94009 5.68785
H 15.7765 5.81491 8.07179
H 15.9147 6.88463 9.51436
H 17.1125 5.53291 9.5426
H 17.1032 6.8055 8.22517
H 15.8504 5.81743 10.6834
H 15.7531 7.13813 12.0567
H 16.9706 5.77122 11.8796
H 16.952 7.05883 10.8698
H 15.6171 5.74787 13.1576
H 15.7907 6.86973 14.523
H 17.1314 5.66789 14.6129
H 17.0444 6.93223 13.3206
H 15.8424 5.7082 15.7277
H 15.9235 6.90245 16.9661
H 17.248 5.81072 17.1469
H 17.2798 7.13122 15.8319
H 15.9232 5.83126 18.2226
H 15.6197 7.05872 19.4287
H 17.2185 5.77128 19.4825
H 17.1163 7.02286 18.3233
H 15.8281 5.8143 20.8489
H 15.8643 7.00455 22.1314
H 16.9977 5.80959 22.2239
H 17.1405 7.0482 20.8977
H 15.9888 8.39269 0.556344
H 15.8263 9.54932 1.81418
H 17.0707 8.30812 1.90896
H 17.2285 9.58943 0.692123
H 15.943 8.29047 3.1742
H 15.8751 9.53493 4.45293
H 17.1998 8.27989 4.53247
H 17.0896 9.50569 3.14137
H 15.9199 8.19842 5.72645
H 15.8152 9.61187 6.99863
H 16.9933 8.21115 7.02416
H 17.0772 9.67146 5.7754
H 15.8572 8.33939 8.28705
H 15.9083 9.58324 9.4455
H 17.0867 8.15275 9.52318
H 17.2059 9.51114 8.23203
H 15.8824 8.28397 10.8799
H 15.7229 9.53761 11.9771
H 17.0615 8.37313 12.1287
H 17.0909 9.47107 10.7674
H 15.9739 8.2752 13.358
H 15.7644 9.53966 14.6574
H 17.1361 8.21439 14.6769
H 17.0666 9.47069 13.3908
H 15.8566 8.07211 15.8531
H 15.9035 9.46758 16.9382
H 17.2244 8.14672 17.0532
H 17.1272 9.56388 15.8474
H 15.8217 8.33295 18.2227
H 15.8143 9.47297 19.5985
H 17.1267 8.16601 19.7231
H 17.2114 9.48626 18.4364
H 15.8899 8.40794 20.8672
H 15.9249 9.58361 22.0595
H 17.1016 8.22213 22.0599
H 17.283 9.55065 20.9406
H 15.7546 10.7531 0.498302
H 15.956 12.1707 1.74521
H 17.1964 10.7941 1.91634
H 17.1429 12.01 0.659584
H 15.7942 10.9092 3.19371
H 15.8681 11.9514 4.56851
H 17.1634 10.9141 4.535
H 17.0161 12.2117 3.14341
H 15.7983 10.7948 5.63035
H 15.8681 12.1223 6.86344
H 17.2355 10.8769 7.1095
H 17.1594 11.9505 5.69463
H 15.8069 10.8622 8.11442
H 15.9466 12.09 9.523
H 17.0756 10.7644 9.51561
H 17.0587 12.0168 8.09304
H 15.8509 10.8391 10.7931
H 15.9087 11.9946 11.9858
H 17.1639 10.5543 11.9479
H 17.0953 11.9935 10.6338
H 15.9199 10.8308 13.2241
H 15.9385 12.2009 14.5374
H 17.0948 10.8667 14.6059
H 17.0429 12.0125 13.2708
H 15.8355 10.7887 16.0541
H 15.8998 12.1053 17.1635
H 17.1466 10.7388 17.0917
H 17.0968 11.963 15.8274
H 15.7991 10.635 18.3096
H 15.9228 11.8651 19.6825
H 17.0776 10.7209 19.6284
H 17.1134 11.9639 18.3486
H 15.861 10.73 20.9742
H 15.8219 12.0837 22.1415
H 17.2103 10.7785 22.2096
H 17.0596 11.9643 20.9659
H 16.0285 13.182 0.647851
H 15.8635 14.5647 1.80658
H 17.0163 13.4155 1.75038
H 17.1857 14.6022 0.624267
H 15.8381 13.2941 3.14915
H 15.768 14.4992 4.37449
H 17.0163 13.2389 4.37511
H 17.1617 14.4759 3.16205
H 15.849 13.2414 5.68535
H 15.6716 14.607 6.91258
H 17.1254 13.2773 6.90967
H 17.1587 14.536 5.80235
H 15.7835 13.2199 8.19632
H 15.6909 14.5524 9.46032
H 17.1147 13.4458 9.3912
H 17.0097 14.5875 8.24565
H 15.7989 13.3297 10.7102
H 15.9566 14.7891 12.0797
H 16.9843 13.3872 11.9292
H 17.192 14.5625 10.7885
H 15.7672 13.3984 13.4225
H 15.8395 14.4703 14.8035
H 17.1737 13.2534 14.6533
H 16.972 14.4937 13.3587
H 15.8694 13.348 15.8414
H 15.9334 14.6004 17.2824
H 17.1131 13.3221 17.0831
H 17.109 14.6487 15.8684
H 15.9787 13.17 18.5646
H 15.8259 14.5832 19.7336
H 17.2134 13.3214 19.6487
H 17.1169 14.5066 18.5288
H 15.8735 13.3551 20.9383
H 16.0318 14.4129 22.2542
H 17.2052 13.175 22.129
H 17.1017 14.5173 20.9536
H 15.8087 15.9562 0.573403
H 15.811 17.1098 1.96579
H 17.0408 15.747 1.85646
H 17.0898 17.0962 0.681355
H 15.8369 16.0031 3.07845
H 15.9929 17.1651 4.43412
H 17.179 15.838 4.35958
H 17.22 17.0074 3.09541
H 15.8564 15.8768 5.63995
H 15.8406 17.1513 6.98488
H 16.9909 15.8912 6.83084
H 17.1654 16.9432 5.61924
H 15.8704 15.8244 8.25649
H 15.8525 17.1841 9.42828
H 16.9488 15.8055 9.60363
H 17.0286 17.1401 8.20867
H 15.8647 15.9099 10.7928
H 15.7814 17.2805 12.1294
H 17.1708 15.7402 11.9861
H 17.0805 16.9962 10.9225
H 15.789 15.8926 13.4313
H 16.048 17.1168 14.5855
H 17.2742 15.8933 14.5426
H 17.0557 17.1034 13.1375
H 15.8929 15.8766 15.8431
H 15.851 17.0927 17.2233
H 17.2429 15.9075 17.2724
H 17.2089 17.1309 16.0438
H 15.8283 15.7746 18.391
H 15.8903 17.1323 19.5733
H 17.2074 15.7777 19.5987
H 17.0102 17.0816 18.3851
H 15.7767 15.9531 20.9678
H 15.802 17.1017 22.1677
H 17.0601 15.7785 22.0556
H 17.129 17.2388 20.8518
H 15.757 18.3954 0.644685
H 15.7587 19.6422 1.85295
H 17.1197 18.4638 1.86453
H 17.0851 19.5338 0.527036
H 15.8739 18.3892 3.17385
H 15.9431 19.7463 4.43543
H 17.1308 18.4205 4.36361
H 17.1399 19.7286 3.14304
H 15.8414 18.3559 5.67002
H 15.8074 19.5863 7.006
H 17.1908 18.3472 6.9179
H 17.1373 19.6211 5.72768
H 15.8567 18.4194 8.13401
H 15.8951 19.5287 9.57689
H 17.0018 18.1642 9.54327
H 17.0277 19.5959 8.34381
H 15.9045 18.3172 10.8421
H 15.9687 19.5423 12.1365
H 17.2652 18.3694 11.9927
H 17.2168 19.5835 10.7247
H 16.0959 18.3724 13.3423
H 15.8619 19.7365 14.5507
H 17.3188 18.3443 14.6955
H 17.0501 19.5788 13.4002
H 15.9855 18.419 15.8776
H 15.946 19.5811 17.0535
H 17.2752 18.3063 17.1922
H 17.1226 19.8061 15.8515
H 15.7982 18.4574 18.454
H 15.8945 19.6369 19.6075
H 17.2797 18.4839 19.6578
H 17.0568 19.8267 18.3907
H 15.7041 18.3578 20.9494
H 15.6782 19.6106 22.1485
H 16.9744 18.3494 22.245
H 17.0385 19.6792 21.0187
H 15.694 20.9456 0.604769
H 15.9214 22.164 2.06249
H 16.9221 20.8389 1.80517
H 17.1189 22.3323 0.614267
H 15.8371 20.7724 3.24154
H 15.9499 22.3322 4.42668
H 17.1386 20.9756 4.46491
H 17.1698 22.0414 3.20191
H 15.8998 20.9463 5.64056
H 15.8989 22.2566 6.82765
H 17.2397 20.9682 7.04561
H 17.1468 22.2578 5.67042
H 15.8684 20.7173 8.43887
H 15.7952 22.1386 9.54663
H 17.2314 20.8253 9.63403
H 17.0582 22.0241 8.20661
H 15.833 20.8341 10.748
H 15.9832 22.1191 11.9215
H 17.2201 20.7863 12.028
H 17.1556 22.0846 10.7265
H 15.8475 20.9 13.3576
H 15.7287 22.2198 14.5311
H 17.0649 21.0116 14.6301
H 17.0362 22.201 13.1965
H 15.7831 20.8842 15.9137
H 15.7475 22.2867 17.2947
H 17.0126 21.0358 17.0899
H 17.1029 22.0767 15.8487
H 15.872 20.9505 18.3905
H 15.9547 22.2393 19.8439
H 17.0666 20.814 19.6895
H 17.0337 22.1638 18.5249
H 15.9196 20.9304 20.9001
H 15.8064 22.3627 22.1565
H 17.0968 21.0396 22.3063
H 17.0161 22.1258 20.9474
H 18.3784 0.723028 0.709399
H 18.4141 2.00236 1.92383
H 19.6471 0.706112 1.91441
H 19.8062 2.0548 0.521945
H 18.375 0.64245 3.15966
H 18.3811 1.9244 4.45191
H 19.603 0.709692 4.38938
H 19.6365 1.98485 3.12776
H 18.3529 0.621247 5.71513
H 18.2899 1.86084 7.0878
H 19.5513 0.466714 6.98477
H 19.6386 1.97615 5.7419
H 18.302 0.60186 8.08849
H 18.186 1.91095 9.59544
H 19.4359 0.63599 9.39961
H 19.6105 1.81897 8.25973
H 18.3614 0.584539 10.7337
H 18.3158 1.94512 12.0592
H 19.4999 0.677604 11.9415
H 19.7373 1.91254 10.8047
H 18.4181 0.547487 13.2865
H 18.2167 1.61867 14.5663
H 19.6325 0.626148 14.576
H 19.5661 2.04174 13.2644
H 18.3417 0.598532 15.8799
H 18.3292 2.00127 17.1584
H 19.6104 0.871608 17.0351
H 19.5322 1.82862 15.7243
H 18.2284 0.601973 18.3656
H 18.4899 2.03762 19.6121
H 19.5892 0.802834 19.7847
H 19.5678 1.83129 18.3558
H 18.2903 0.517153 20.8955
H 18.2942 1.89062 22.1959
H 19.6836 0.612788 22.1844
H 19.5617 1.9179 20.9254
H 18.3087 3.05755 0.674786
H 18.4018 4.4648 1.88808
H 19.5856 3.19366 1.93914
H 19.6116 4.3126 0.602112
H 18.3125 3.25532 3.02776
H 18.6716 4.47661 4.45726
H 19.6942 3.17474 4.35272
H 19.6435 4.60512 3.34135
H 18.5016 3.19579 5.75201
H 18.3053 4.29712 6.99468
H 19.5891 3.19446 7.07403
H 19.6132 4.43006 5.64067
H 18.4444 3.11489 8.32661
H 18.3092 4.46689 9.41122
H 19.6632 3.15571 9.66218
H 19.6353 4.40777 8.24452
H 18.3507 3.20847 10.7695
H 18.2568 4.39617 11.8773
H 19.7068 3.1453 12.2188
H 19.7653 4.46723 10.785
H 18.3226 3.29002 13.3015
H 18.2846 4.3798 14.5521
H 19.5995 3.15009 14.6141
H 19.6487 4.38728 13.2212
H 18.5464 3.09945 15.7986
H 18.4956 4.44097 17.3046
H 19.6327 3.13286 17.024
H 19.6167 4.41782 15.8654
H 18.4249 3.29577 18.3454
H 18.3859 4.40825 19.5847
H 19.7474 3.21379 19.7136
H 19.7114 4.33131 18.3893
H 18.3953 3.19478 20.8841
H 18.2872 4.62675 22.1465
H 19.5695 3.29991 22.172
H 19.75 4.54283 20.8845
H 18.2349 5.65346 0.681552
H 18.2995 6.69548 1.80127
H 19.6666 5.77089 2.06018
H 19.5621 6.82518 0.539401
H 18.2809 5.62985 3.33639
H 18.391 6.94372 4.39394
H 19.5764 5.73687 4.39796
H 19.6599 7.02908 3.22133
H 18.1998 5.89951 5.6768
H 18.4 7.07947 7.00677
H 19.597 5.67637 7.00775
H 19.676 6.84214 5.75707
H 18.3258 5.69528 8.30649
H 18.352 7.0171 9.68477
H 19.5777 5.651 9.40803
H 19.6866 6.8988 8.17041
H 18.3742 5.70506 10.8771
H 18.3756 6.93369 12.1058
H 19.633 5.70956 12.1105
H 19.6484 6.89576 10.7321
H 18.3787 5.47347 13.163
H 18.3006 6.85536 14.4163
H 19.5755 5.51123 14.5131
H 19.5424 6.99406 13.229
H 18.3977 5.72735 15.9016
H 18.6022 6.88615 17.026
H 19.8033 5.59125 17.1854
H 19.675 6.95932 15.6565
H 18.5412 5.74112 18.4486
H 18.4261 6.88814 19.6926
H 19.6595 5.84553 19.8225
H 19.6213 7.02099 18.2684
H 18.3481 5.59072 20.752
H 18.4978 6.95025 22.1478
H 19.5799 5.61205 22.0464
H 19.5955 6.81594 20.9448
H 18.3277 8.18611 0.579212
H 18.4389 9.63755 1.97306
H 19.6198 8.31614 1.86189
H 19.6544 9.57883 0.715836
H 18.4645 8.15108 2.98323
H 18.4237 9.49761 4.32444
H 19.5798 8.07451 4.48362
H 19.6636 9.43882 3.18923
H 18.3335 8.19544 5.74062
H 18.4635 9.47757 7.02113
H 19.6499 8.28817 6.89793
H 19.761 9.66129 5.66835
H 18.3684 8.183 8.30218
H 18.28 9.49479 9.59909
H 19.6147 8.07462 9.53204
H 19.6161 9.43689 8.29165
H 18.3964 8.28113 10.8193
H 18.3971 9.50004 12.1628
H 19.7735 8.1738 12.081
H 19.7024 9.52835 10.8108
H 18.3161 8.29051 13.2482
H 18.3327 9.62885 14.5899
H 19.6668 8.32174 14.5495
H 19.6716 9.52322 13.3641
H 18.5342 8.33843 15.7198
H 18.4404 9.54735 17.1167
H 19.7903 8.27639 17.0188
H 19.6333 9.48012 15.8296
H 18.3817 8.33245 18.3388
H 18.4375 9.57736 19.6765
H 19.861 8.10975 19.6853
H 19.7739 9.36016 18.3144
H 18.4947 8.13404 20.9098
H 18.4264 9.39876 22.0796
H 19.74 8.20344 22.0593
H 19.6933 9.4752 20.8725
H 18.5102 10.755 0.65018
H 18.3586 12.1078 1.93779
H 19.6437 10.779 2.02056
H 19.6713 12.034 0.708362
H 18.4618 10.8366 3.16606
H 18.2735 12.0487 4.4901
H 19.474 10.7939 4.35157
H 19.5209 12.1628 3.07481
H 18.3632 10.7166 5.77637
H 18.4114 12.0625 6.97163
H 19.5658 10.7635 7.06002
H 19.6514 12.0368 5.7823
H 18.3434 10.8822 8.43058
H 18.4633 12.1271 9.51627
H 19.8174 10.6274 9.57794
H 19.7268 11.9612 8.30384
H 18.3925 10.8277 10.5385
H 18.2469 12.0635 12.1043
H 19.5161 10.6327 11.9361
H 19.6042 12.0625 10.8201
H 18.3852 10.8604 13.3092
H 18.3201 12.1131 14.532
H 19.627 10.7139 14.7253
H 19.6711 12.1649 13.3125
H 18.3939 10.8561 15.7493
H 18.4374 11.9103 17.1462
H 19.6184 10.602 17.0832
H 19.6555 11.9279 15.9987
H 18.2769 10.8228 18.3867
H 18.4386 12.0807 19.6179
H 19.6931 10.7341 19.6105
H 19.5656 12.0132 18.3571
H 18.5108 10.789 20.9316
H 18.357 11.9649 22.2064
H 19.6449 10.7704 22.1913
H 19.6787 12.0335 20.9903
H 18.4165 13.3304 0.620539
H 18.4084 14.5457 1.89974
H 19.7349 13.4395 1.86206
H 19.589 14.7218 0.707674
H 18.2548 13.2497 3.15897
H 18.4709 14.5427 4.56145
H 19.5136 13.2691 4.52552
H 19.5908 14.5508 3.21543
H 18.4936 13.3126 5.76555
H 18.3351 14.456 7.04398
H 19.6765 13.2478 7.03704
H 19.5312 14.7441 5.66136
H 18.3572 13.3303 8.37973
H 18.2168 14.4309 9.59756
H 19.5414 13.3971 9.60113
H 19.624 14.6407 8.33255
H 18.3132 13.2676 10.8809
H 18.4404 14.4557 12.018
H 19.5885 13.1778 12.0061
H 19.7638 14.6441 10.7263
H 18.359 13.3894 13.1364
H 18.4367 14.5228 14.5252
H 19.6842 13.2918 14.7005
H 19.4271 14.5633 13.2117
H 18.294 13.3182 15.9924
H 18.3301 14.6957 17.0431
H 19.7246 13.3226 17.0357
H 19.7224 14.5911 15.8139
H 18.4186 13.1072 18.3325
H 18.3649 14.573 19.7606
H 19.5961 13.3227 19.5265
H 19.6282 14.5051 18.4956
H 18.3344 13.2683 20.9667
H 18.4403 14.756 22.0879
H 19.639 13.351 22.2004
H 19.6386 14.5071 20.9863
H 18.4198 16.0069 0.51049
H 18.3081 17.1646 1.75336
H 19.4113 15.8064 1.92801
H 19.771 17.1123 0.619609
H 18.1661 15.8494 3.14526
H 18.4645 17.1167 4.38842
H 19.578 15.7945 4.34029
H 19.5913 17.1182 3.12217
H 18.5067 15.7697 5.63363
H 18.2914 17.111 6.96989
H 19.6193 15.8511 6.95458
H 19.5966 16.9566 5.65107
H 18.2913 15.7746 8.27446
H 18.3655 17.0224 9.47024
H 19.465 15.7993 9.48871
H 19.6301 16.9657 8.43846
H 18.402 15.7561 10.9951
H 18.4206 17.0219 12.1865
H 19.7623 15.7556 12.1069
H 19.5263 17.0327 10.7971
H 18.3527 15.878 13.3163
H 18.4665 17.0483 14.7124
H 19.5348 15.7079 14.5042
H 19.6919 17.0823 13.3365
H 18.3328 15.8548 15.921
H 18.5513 17.2027 17.1954
H 19.6957 15.7488 17.1156
H 19.5971 17.0499 16.019
H 18.4675 15.692 18.4842
H 18.3205 17.1347 19.5635
H 19.637 15.7908 19.8176
H 19.7309 16.9406 18.4411
H 18.283 15.9944 20.9772
H 18.4724 17.2129 22.0768
H 19.7789 15.7171 22.2784
H 19.6309 17.0929 20.8658
H 18.3499 18.3465 0.536116
H 18.3251 19.7689 1.76695
H 19.6143 18.3968 1.87601
H 19.5803 19.6226 0.671318
H 18.4035 18.3538 3.16569
H 18.4366 19.7123 4.40211
H 19.7198 18.5182 4.50641
H 19.4224 19.6462 3.05264
H 18.3595 18.2325 5.60145
H 18.3043 19.5793 6.99932
H 19.6596 18.2597 6.95878
H 19.6524 19.5443 5.82163
H 18.3839 18.2313 8.2524
H 18.3013 19.5036 9.37295
H 19.7352 18.2373 9.53027
H 19.5725 19.566 8.34999
H 18.2417 18.2326 10.6821
H 18.3884 19.4621 12.0846
H 19.7173 18.4061 12.1939
H 19.5389 19.5304 10.8536
H 18.4158 18.3609 13.4235
H 18.3527 19.6211 14.6281
H 19.6131 18.3479 14.5722
H 19.5609 19.6015 13.2897
H 18.4606 18.3101 15.8591
H 18.3041 19.6084 17.1148
H 19.6371 18.4556 17.158
H 19.7778 19.7498 15.9273
H 18.343 18.3702 18.4834
H 18.3681 19.6709 19.7673
H 19.6371 18.3944 19.6729
H 19.6147 19.6971 18.3257
H 18.2642 18.4261 20.9284
H 18.3799 19.557 22.2397
H 19.7881 18.3777 22.1779
H 19.5282 19.5867 20.9843
H 18.4454 20.8284 0.653747
H 18.438 22.2635 2.00416
H 19.5497 20.9476 1.783
H 19.6644 22.1817 0.63006
H 18.4255 20.9786 3.10718
H 18.5321 22.1679 4.37447
H 19.7025 20.7405 4.56713
H 19.6356 22.1073 3.10002
H 18.3728 21.008 5.81642
H 18.2241 22.2226 7.03926
H 19.6842 20.8536 7.08903
H 19.5076 22.205 5.76867
H 18.2974 20.7089 8.28319
H 18.3169 22.0995 9.4405
H 19.6106 20.9386 9.7419
H 19.5514 22.1047 8.2296
H 18.5504 20.9625 10.8576
H 18.3529 22.1319 12.0078
H 19.6227 20.9111 12.0643
H 19.6037 22.2552 10.7048
H 18.304 20.9997 13.326
H 18.343 22.2497 14.4607
H 19.5773 20.8989 14.5875
H 19.6853 22.1298 13.2536
H 18.4652 21.0071 15.8843
H 18.4436 22.138 17.052
H 19.5224 20.9295 17.228
H 19.702 22.3203 15.9154
H 18.3854 20.7851 18.3366
H 18.4977 22.2411 19.635
H 19.6007 21.0892 19.6639
H 19.6311 22.2322 18.1482
H 18.3402 20.9455 21.0383
H 18.4501 22.3303 22.0789
H 19.6302 20.8406 22.2204
H 19.7452 22.3012 20.9514
H 20.932 0.510758 0.728403
H 20.8323 2.00032 1.87853
H 22.142 0.68241 1.91653
H 22.1058 1.91733 0.65684
H 20.7157 0.735467 3.1784
H 20.8567 1.82073 4.54667
H 22.0416 0.738706 4.47648
H 22.1512 1.9403 3.08936
H 20.9191 0.571967 5.79191
H 20.8186 1.90847 6.99634
H 22.1647 0.79742 7.08932
H 22.199 1.94124 5.69721
H 20.8058 0.61065 8.25871
H 21.0049 1.91741 9.58219
H 22.1183 0.492684 9.56408
H 22.1308 1.83845 8.28319
H 20.8283 0.729406 10.6496
H 20.7787 1.80837 11.9947
H 22.1381 0.575304 12.0783
H 22.0472 1.95672 10.8001
H 20.799 0.650908 13.1701
H 20.7648 1.89469 14.5532
H 22.0872 0.696752 14.5395
H 22.1111 1.85385 13.317
H 21.0149 0.612715 15.69
H 20.838 1.89057 16.9024
H 22.0876 0.627812 17.051
H 22.2424 1.96761 15.7657
H 20.9018 0.589243 18.2694
H 20.8194 1.87767 19.6416
H 22.1064 0.670559 19.5872
H 22.1702 1.89009 18.3304
H 21.0188 0.518638 20.875
H 20.9908 1.89874 22.0513
H 22.1995 0.701241 22.1906
H 22.1081 1.8313 20.8595
H 20.8894 3.23453 0.752041
H 20.9258 4.52258 1.94838
H 22.088 3.27491 1.88899
H 22.1078 4.45719 0.43867
H 20.885 3.17519 3.21955
H 20.9869 4.48087 4.44998
H 22.1924 3.10296 4.47875
H 22.2457 4.49583 3.24504
H 20.8659 3.28732 5.7057
H 20.8795 4.39544 6.94613
H 22.2152 3.06412 6.94717
H 22.1386 4.40905 5.76918
H 20.9336 3.29759 8.24798
H 21.0649 4.50724 9.56951
H 22.0903 3.27017 9.51129
H 22.2385 4.35085 8.21317
H 20.8568 3.2144 10.6891
H 20.8387 4.44206 11.8961
H 22.0027 3.04949 12.0848
H 22.1172 4.45448 10.8054
H 20.9184 3.16062 13.3645
H 20.9273 4.37286 14.5216
H 22.1901 3.07894 14.4229
H 22.2082 4.27987 13.0706
H 20.9295 3.2252 15.7521
H 21.0739 4.28536 17.1297
H 22.0131 3.00356 17.0889
H 22.096 4.47396 15.8814
H 20.9891 3.10874 18.3246
H 20.9532 4.44802 19.7264
H 22.279 3.09442 19.6713
H 22.198 4.41224 18.4001
H 20.978 3.06644 21.0647
H 20.9791 4.43099 22.2452
H 22.1673 3.07076 22.2323
H 22.152 4.30664 20.8878
H 20.8493 5.66854 0.620625
H 20.7235 7.03989 1.92904
H 22.1492 5.7288 1.96148
H 22.0149 7.06156 0.641449
H 21.111 5.63098 3.19782
H 20.888 6.98189 4.20065
H 22.2705 5.72794 4.51606
H 22.135 6.97884 3.10178
H 20.8511 5.67404 5.66307
H 20.8188 6.89009 6.89189
H 22.2379 5.58659 7.06496
H 22.1041 6.83019 5.85909
H 20.9644 5.73871 8.25638
H 20.9342 6.87063 9.5013
H 22.3591 5.69149 9.47762
H 22.2092 7.00799 8.20277
H 20.9988 5.8113 10.7506
H 20.9004 6.88148 12.1902
H 22.2958 5.54891 11.9898
H 22.225 6.87351 10.958
H 20.8906 5.61444 13.2961
H 21.027 6.96693 14.3425
H 22.3565 5.70921 14.5365
H 22.1569 6.88138 13.1549
H 20.9037 5.64754 15.7416
H 20.7354 6.85173 17.0262
H 22.1204 5.48936 17.1342
H 22.2088 6.99371 15.8714
H 21.063 5.74898 18.4052
H 21.1311 7.01484 19.5868
H 22.1351 5.5814 19.6775
H 22.4064 7.07177 18.3326
H 21.1895 5.66699 20.9694
H 20.8385 7.18831 22.0619
H 22.1837 5.79916 22.2241
H 22.3081 6.86782 20.8099
H 20.9333 8.21743 0.540888
H 20.932 9.58713 1.95519
H 22.1558 8.18879 1.8332
H 22.2509 9.54089 0.767129
H 20.8856 8.45107 3.09307
H 20.9367 9.52812 4.3823
H 22.3326 8.24363 4.59989
H 22.2132 9.40323 3.36191
H 20.8911 8.23119 5.63727
H 20.8319 9.4537 7.01488
H 22.183 8.38582 6.91651
H 21.955 9.57398 5.74784
H 20.9146 8.1345 8.33138
H 20.9902 9.53858 9.39002
H 22.1985 8.18601 9.61047
H 22.24 9.45336 8.2636
H 20.9196 8.21106 10.7579
H 20.9758 9.6002 12.0292
H 22.23 8.15376 11.9928
H 22.287 9.45389 10.715
H 20.9403 8.18908 13.2566
H 20.9371 9.39223 14.3845
H 22.1418 8.09348 14.4526
H 22.2617 9.54725 13.078
H 20.8882 8.17103 15.8766
H 20.9423 9.53543 17.0387
H 22.1632 8.27439 16.9873
H 22.276 9.5142 15.7464
H 20.9109 8.17134 18.4496
H 21.0491 9.5299 19.6839
H 22.2286 8.29746 19.5453
H 22.1828 9.48726 18.33
H 20.9435 8.27002 20.8977
H 20.8275 9.55005 22.0797
H 22.0953 8.23829 22.1626
H 22.2661 9.48346 20.9397
H 20.9081 10.7944 0.653843
H 20.7799 12.0265 1.94178
H 22.1652 10.6501 1.92786
H 22.0805 11.9256 0.803281
H 20.8634 10.892 3.13426
H 20.8747 12.1719 4.4056
H 22.1024 10.7224 4.49319
H 22.1347 12.0062 3.16377
H 20.8012 10.8744 5.46978
H 21.0163 12.1444 6.94083
H 22.0081 10.7875 6.90012
H 22.2703 11.8977 5.73825
H 20.9227 10.8876 8.23046
H 20.9294 11.9417 9.69735
H 22.2305 10.7268 9.36246
H 21.9867 12.0634 8.17234
H 20.9712 10.8339 10.8131
H 20.9072 12.037 12.1124
H 22.1552 10.7794 11.9928
H 22.1849 12.0363 10.6325
H 20.8022 10.9611 13.1546
H 20.7082 12.0861 14.562
H 22.1707 10.8217 14.5105
H 22.2181 12.1556 13.23
H 20.8787 10.7652 15.6918
H 21.0659 12.2355 17.1124
H 22.208 10.7089 17.019
H 22.1224 11.9963 15.8009
H 20.7184 10.7682 18.3364
H 21.0515 12.1748 19.5695
H 22.0882 10.8209 19.6444
H 22.223 11.991 18.2877
H 20.9499 10.7986 20.9507
H 20.8827 11.9787 22.2827
H 22.2413 10.757 22.058
H 22.1461 12.0468 20.9492
H 20.9637 13.4131 0.845684
H 20.8741 14.6333 1.8667
H 22.1446 13.3813 2.11404
H 22.1365 14.6303 0.731354
H 20.747 13.2938 3.30867
H 20.9323 14.5908 4.42926
H 22.0991 13.2773 4.45248
H 22.1627 14.5878 3.21531
H 20.8961 13.3762 5.59692
H 20.755 14.4177 6.90124
H 22.1467 13.2011 6.73681
H 22.2041 14.6409 5.68759
H 20.7872 13.3625 8.26895
H 20.9334 14.6934 9.44062
H 22.1 13.4148 9.44566
H 22.185 14.5904 8.18758
H 20.9528 13.2371 10.7601
H 20.8826 14.5265 11.9688
H 22.2148 13.3532 12.0685
H 22.1409 14.5174 10.7796
H 21.0374 13.3309 13.293
H 20.9352 14.4577 14.4472
H 22.403 13.2395 14.598
H 22.3032 14.4712 13.4867
H 20.9604 13.3167 15.9448
H 20.8696 14.6101 17.1
H 22.0931 13.2781 17.0145
H 22.2329 14.5747 15.8027
H 21.0369 13.3063 18.3602
H 20.7864 14.5424 19.6349
H 22.2059 13.2478 19.6129
H 22.0846 14.6494 18.5516
H 20.7821 13.3865 20.9164
H 21.0875 14.5918 22.3735
H 22.2017 13.2806 22.3852
H 22.0545 14.6171 21.0413
H 20.9906 15.8488 0.760697
H 20.9569 17.2044 1.98285
H 22.1866 15.8835 1.91072
H 22.2545 17.1854 0.630318
H 20.8685 15.7481 3.15068
H 20.8607 17.1936 4.42055
H 22.1005 15.7618 4.34273
H 22.1659 17.015 3.14693
H 20.9553 15.7677 5.54405
H 20.9347 16.9924 6.89917
H 22.1741 15.8641 7.01309
H 22.2392 16.9703 5.61002
H 20.9987 15.769 8.19849
H 21.0914 17.0294 9.4972
H 22.2233 15.8013 9.45313
H 22.1987 17.2449 8.14828
H 20.9592 15.8044 10.7672
H 20.8553 17.2003 12.0461
H 22.1391 15.8344 12.1766
H 22.1774 17.0876 10.8592
H 20.7977 15.7948 13.3832
H 20.8408 16.9443 14.6786
H 22.0238 15.8049 14.5159
H 22.1778 17.2499 13.4369
H 20.9279 15.8171 15.7252
H 20.9021 17.0523 17.1724
H 22.2923 15.8488 17.1695
H 22.1276 17.1477 15.8352
H 20.8474 15.8295 18.2634
H 20.9676 17.136 19.5599
H 22.16 15.7916 19.6535
H 22.1265 17.2275 18.4149
H 21.0554 15.9571 20.954
H 20.9206 17.1342 22.2291
H 22.0756 15.8106 22.2314
H 22.2922 17.204 20.964
H 21.0913 18.467 0.661167
H 20.9414 19.591 2.00755
H 22.2318 18.4179 1.91111
H 22.192 19.7611 0.717891
H 20.7915 18.517 3.21957
H 21.0936 19.681 4.46094
H 22.1551 18.3836 4.35409
H 22.194 19.7101 3.19545
H 20.8536 18.3868 5.63906
H 20.9685 19.5044 7.02121
H 22.2629 18.2484 6.74879
H 22.2117 19.6293 5.63595
H 20.9373 18.2636 8.16618
H 20.8808 19.5873 9.4868
H 22.2223 18.3303 9.56186
H 22.2468 19.6569 8.29537
H 20.8155 18.3567 10.7317
H 20.9462 19.6493 11.9475
H 22.0996 18.5407 12.0082
H 22.2047 19.5587 10.7902
H 21.0835 18.4339 13.4394
H 20.8446 19.7207 14.4944
H 22.2047 18.4087 14.5747
H 22.2141 19.5825 13.1938
H 20.8057 18.3678 15.6733
H 20.9894 19.7351 17.1493
H 22.1264 18.4951 16.9407
H 22.1625 19.5551 15.7484
H 20.7709 18.3882 18.3056
H 20.8715 19.6741 19.6016
H 22.1174 18.48 19.616
H 22.2045 19.6692 18.3547
H 20.94 18.4249 20.7852
H 20.9162 19.5737 22.0042
H 22.118 18.3732 22.0844
H 22.2547 19.7213 20.8284
H 20.8225 20.8151 0.622374
H 21.022 22.0977 1.87588
H 22.1302 20.8986 1.85195
H 22.0678 22.2638 0.507771
H 20.7918 21.0407 3.17712
H 20.6504 22.1173 4.42974
H 22.1042 20.9073 4.43363
H 22.0932 22.1828 3.1458
H 20.7905 20.9504 5.78268
H 20.9078 22.1938 6.96643
H 22.2061 20.9834 7.00423
H 22.0965 22.2574 5.69895
H 21.0061 20.8582 8.1448
H 20.8617 22.1499 9.46375
H 22.0765 20.7341 9.59025
H 22.2493 22.0377 8.25113
H 20.8016 20.8873 10.8755
H 20.8128 22.1856 11.9615
H 22.0919 20.96 12.1433
H 22.182 22.0995 10.8319
H 20.8657 20.929 13.2699
H 20.8541 22.1309 14.646
H 22.2927 20.7896 14.4587
H 22.1685 22.1652 13.219
H 20.9295 20.8709 15.7789
H 21.0242 22.1272 17.0004
H 22.1871 20.9023 17.252
H 22.1545 22.0673 15.7502
H 20.9137 20.8653 18.4467
H 20.762 22.3514 19.4087
H 22.217 20.9901 19.5829
H 21.9587 22.1463 18.3861
H 20.9952 20.852 20.8324
H 20.9146 22.0551 22.0319
H 22.1002 20.9148 22.1315
H 22.3108 22.2377 20.8423
O 22.8133 0.0159826 22.801
O 1.28994 1.3238 1.3144
O 22.7876 22.8018 2.5791
O 1.2533 1.23319 3.87182
O 22.7611 0.0228752 5.16001
O 1.29243 1.25126 6.34325
O 22.8143 22.7832 7.63767
O 1.25124 1.26701 8.84348
O 22.8129 22.7777 10.1428
O 1.25286 1.27543 11.3675
O 22.7942 22.7938 12.6558
O 1.3056 1.19769 13.9058
O 22.7159 22.7895 15.1641
O 1.29569 1.1937 16.4051
O 22.7142 22.794 17.771
O 1.22387 1.2319 18.978
O 0.0682965 0.0509148 20.2636
O 1.31022 1.35781 21.5593
O 22.7824 2.45392 0.0559158
O 1.21424 3.78689 1.29893
O 22.7528 2.56976 2.51882
O 1.28819 3.71819 3.97616
O 0.018724 2.50293 5.1175
O 1.31214 3.73702 6.35026
O 22.8077 2.52337 7.60352
O 1.2647 3.8242 8.89938
O 22.8145 2.48704 10.0842
O 1.34457 3.76126 11.302
O 0.0305983 2.60545 12.6129
O 1.4419 3.73896 13.8794
O 22.7973 2.53599 15.0831
O 1.33137 3.6808 16.4424
O 22.7717 2.4532 17.6463
O 1.22647 3.74646 18.9294
O 22.8011 2.47417 20.3378
O 1.22003 3.85001 21.5341
O 22.7645 5.1103 0.0567186
O 1.25157 6.32054 1.30201
O 22.7914 5.06429 2.55634
O 1.12631 6.27217 3.88319
O 22.7972 5.0883 5.11299
O 1.29137 6.28525 6.34348
O 0.0627863 4.97174 7.56188
O 1.26756 6.28681 8.80625
O 22.7613 5.07066 10.1502
O 1.30764 6.25262 11.3352
O 0.113685 4.91096 12.6202
O 1.26542 6.19814 13.9559
O 22.767 4.9635 15.1606
O 1.24739 6.25399 16.4026
O 0.0532409 4.95375 17.6682
O 1.1588 6.28889 18.9469
O 0.00575504 5.05973 20.2775
O 1.30122 6.30888 21.6078
O 0.00474909 7.64077 0.00315537
O 1.15618 8.97366 1.34733
O 22.7785 7.5842 2.4968
O 1.22878 8.83975 3.74449
O 22.8024 7.54119 5.12713
O 1.27557 8.89379 6.29848
O 0.0466079 7.63861 7.52406
O 1.24312 8.87968 8.88648
O 0.00782928 7.55624 10.1628
O 1.27434 8.80627 11.3736
O 0.11757 7.51769 12.5751
O 1.28206 8.81128 13.947
O 22.8136 7.55759 15.1634
O 1.30145 8.87857 16.4257
O 0.0660427 7.65107 17.6541
O 1.29292 8.92216 19.0218
O 0.0535963 7.60151 20.2249
O 1.22654 8.85164 21.501
O 22.7992 10.2195 0.0752161
O 1.2964 11.4854 1.39017
O 22.7987 10.1608 2.60857
O 1.26443 11.3687 3.77144
O 22.773 10.1151 5.08758
O 1.34305 11.3371 6.35315
O 22.7602 10.1753 7.61588
O 1.3156 11.4082 8.79024
O 22.7896 10.143 10.0421
O 1.30645 11.4327 11.3825
O 0.0552563 10.1713 12.669
O 1.28292 11.4205 13.9026
O 22.7969 10.1532 15.1696
O 1.28733 11.3535 16.4754
O 0.0183495 10.1322 17.7156
O 1.23581 11.4116 19.0434
O 22.7653 10.1595 20.2389
O 1.22085 11.3398 21.521
O 22.7422 12.6278 0.0923984
O 1.27493 13.8414 1.27556
O 22.7806 12.6781 2.65964
O 1.31085 13.9463 3.7971
O 0.0398262 12.5564 5.04748
O 1.23369 13.7955 6.29748
O 22.7707 12.6763 7.59907
O 1.17504 14.0548 8.84643
O 22.7807 12.6607 10.0375
O 1.15771 13.9505 11.379
O 0.0359707 12.673 12.6326
O 1.2762 13.9697 13.9876
O 0.0259368 12.5738 15.1944
O 1.19772 13.8844 16.4052
O 22.8119 12.628 17.6687
O 1.26955 13.9217 19.0129
O 22.6884 12.6175 20.3282
O 1.18842 13.945 21.5265
O 0.0238027 15.1895 0.0608357
O 1.30996 16.4087 1.26435
O 0.0235882 15.1668 2.5731
O 1.28509 16.4049 3.79362
O 22.8061 15.139 4.96639
O 1.24904 16.3643 6.30597
O 0.00566614 15.166 7.54146
O 1.22112 16.4899 8.81736
O 22.7635 15.2592 10.1182
O 1.08613 16.5272 11.5497
O 22.7065 15.1743 12.7437
O 1.25218 16.4134 13.8451
O 0.00143125 15.219 15.231
O 1.25939 16.4912 16.5226
O 0.0103548 15.1331 17.8355
O 1.31811 16.506 18.9731
O 22.8094 15.2111 20.2824
O 1.26437 16.4558 21.5177
O 0.0436164 17.7208 0.0164124
O 1.27314 19.0659 1.27102
O 0.0323117 17.8018 2.59041
O 1.23542 18.9935 3.85268
O 0.0213287 17.7098 5.10193
O 1.24454 19.0606 6.26015
O 0.0426547 17.7403 7.45459
O 1.23077 18.987 8.87876
O 0.0451189 17.714 10.1927
O 1.24791 18.9938 11.4428
O 22.7107 17.8175 12.715
O 1.32257 18.994 13.9335
O 22.7822 17.6762 15.1317
O 1.21404 19.0172 16.4231
O 0.0195368 17.8051 17.8203
O 1.3738 19.0303 18.9813
O 0.0556105 17.7499 20.2792
O 1.22976 19.0456 21.5156
O 0.0142879 20.36 0.0638372
O 1.3231 21.5534 1.34921
O 22.8045 20.336 2.59584
O 1.28813 21.5555 3.85017
O 22.8077 20.2899 5.03329
O 1.28234 21.5467 6.28423
O 0.0408612 20.3217 7.64218
O 1.27682 21.5572 8.89144
O 0.015506 20.2307 10.2047
O 1.261 21.6203 11.3594
O 22.7786 20.3141 12.6111
O 1.21039 21.5652 13.9091
O 0.0132116 20.2386 15.2126
O 1.25067 21.5466 16.4922
O 0.0178986 20.2563 17.7801
O 1.28754 21.5036 18.9936
O 0.0604075 20.277 20.1811
O 1.25512 21.5866 21.5787
O 2.52775 0.0421561 0.0760501
O 3.74604 1.31369 1.30751
O 2.56463 0.0827396 2.58219
O 3.86723 1.32991 3.81475
O 2.63097 0.0686156 5.10891
O 3.90199 1.24535 6.40894
O 2.47904 0.00939912 7.64891
O 3.87295 1.19036 8.8638
O 2.5695 0.000266718 10.0384
O 3.80919 1.24268 11.2834
O 2.54808 22.8066 12.6132
O 3.84144 1.1988 13.8346
O 2.62399 22.766 15.1642
O 3.78861 1.10471 16.5288
O 2.54926 22.7667 17.7553
O 3.8404 1.18299 19.0378
O 2.57693 22.7811 20.2042
O 3.65222 1.2394 21.5909
O 2.45454 2.6205 0.0915123
O 3.72495 3.83598 1.35937
O 2.46435 2.50554 2.60016
O 3.8014 3.87214 3.84084
O 2.58846 2.51725 5.1962
O 3.82801 3.88571 6.27299
O 2.53761 2.44482 7.59457
O 3.8226 3.82197 8.8232
O 2.5493 2.48117 9.99316
O 3.84931 3.69327 11.3707
O 2.60918 2.38414 12.6473
O 3.8513 3.76272 13.8889
O 2.64609 2.43346 15.1728
O 3.91582 3.77061 16.4665
O 2.55898 2.42919 17.7241
O 3.80285 3.81364 18.9717
O 2.46073 2.55991 20.1945
O 3.72393 3.73456 21.5042
O 2.45522 5.06557 0.0562052
O 3.77732 6.36254 1.34031
O 2.47886 5.06762 2.57704
O 3.83032 6.33326 3.79595
O 2.53333 5.15941 5.08177
O 3.87516 6.39221 6.36344
O 2.57094 5.00897 7.61161
O 3.86305 6.20622 8.87338
O 2.59863 5.13479 10.105
O 3.84317 6.33685 11.3318
O 2.58422 5.07322 12.6576
O 3.87618 6.25831 13.9879
O 2.51906 5.02536 15.2264
O 3.73994 6.26124 16.5058
O 2.47382 5.05895 17.7067
O 3.80935 6.27868 18.9255
O 2.5391 5.12704 20.2716
O 3.75259 6.32984 21.681
O 2.46636 7.65515 0.095702
O 3.79082 8.88582 1.32535
O 2.47053 7.57115 2.55239
O 3.84156 8.8143 3.75129
O 2.57093 7.58712 5.06909
O 3.79146 8.76359 6.31426
O 2.52662 7.58763 7.5788
O 3.80752 8.90505 8.85534
O 2.48039 7.60137 10.1068
O 3.87772 8.89212 11.37
O 2.52137 7.50209 12.6113
O 3.76198 8.81939 13.9012
O 2.56971 7.58678 15.2185
O 3.78968 8.85918 16.5299
O 2.46869 7.52977 17.7842
O 3.76521 8.86362 19.0673
O 2.57183 7.53434 20.2515
O 3.85388 8.86146 21.5451
O 2.49086 10.1144 0.0994146
O 3.85617 11.4687 1.24658
O 2.54822 10.184 2.55493
O 3.77276 11.439 3.86274
O 2.5535 10.0302 4.97961
O 3.70453 11.4273 6.36606
O 2.5669 10.083 7.58828
O 3.79509 11.4819 8.82652
O 2.51555 10.1428 10.1316
O 3.87487 11.3994 11.3291
O 2.50348 10.0617 12.5842
O 3.71716 11.3309 13.8743
O 2.55833 10.124 15.1647
O 3.78756 11.4014 16.5434
O 2.49436 10.1368 17.7531
O 3.78298 11.407 19.038
O 2.50642 10.1554 20.3305
O 3.79524 11.3414 21.6353
O 2.51793 12.6584 22.8082
O 3.83142 13.939 1.22798
O 2.5923 12.6216 2.60056
O 3.80726 13.9866 3.77983
O 2.5293 12.6588 5.03321
O 3.85474 13.9772 6.13453
O 2.53044 12.7578 7.62568
O 3.73018 14.0367 8.98137
O 2.40861 12.6916 10.079
O 3.78532 13.9755 11.3435
O 2.51985 12.72 12.6302
O 3.65 13.9855 13.955
O 2.4879 12.6932 15.1646
O 3.7705 13.8774 16.4952
O 2.43502 12.6886 17.7091
O 3.79884 13.8767 19.0325
O 2.5022 12.648 20.2898
O 3.71546 13.9328 21.5453
O 2.54779 15.1826 0.011367
O 3.7378 16.4844 1.30144
O 2.61423 15.1829 2.53065
O 3.77182 16.5446 3.7585
O 2.43886 15.2026 5.0686
O 3.81442 16.4597 6.36167
O 2.52625 15.1376 7.51672
O 3.8306 16.4753 8.76715
O 2.3817 15.2747 10.2627
O 3.76475 16.5521 11.3604
O 2.4828 15.2543 12.6458
O 3.76241 16.4586 14.0164
O 2.47286 15.3216 15.301
O 3.85021 16.516 16.5347
O 2.57967 15.2124 17.7495
O 3.83172 16.5093 19.018
O 2.48335 15.1545 20.195
O 3.70572 16.4225 21.5413
O 2.55598 17.8111 22.7915
O 3.90897 19.1036 1.23694
O 2.46572 17.7999 2.52253
O 3.75862 18.9925 3.8211
O 2.51483 17.7021 5.07394
O 3.78379 19.0033 6.29692
O 2.51116 17.7743 7.55556
O 3.72914 19.0003 8.87154
O 2.43167 17.6315 10.1667
O 3.62569 18.9783 11.3737
O 2.54584 17.7075 12.7427
O 3.7075 19.0631 13.9748
O 2.52179 17.7294 15.2192
O 3.81784 19.0388 16.4773
O 2.56171 17.8256 17.6916
O 3.79363 19.0684 19.1015
O 2.50129 17.7667 20.2532
O 3.77327 18.9796 21.5469
O 2.56025 20.2758 0.0492379
O 3.84738 21.5422 1.37363
O 2.47021 20.2787 2.54448
O 3.8052 21.5481 3.74584
O 2.53397 20.3028 5.03423
O 3.83479 21.5866 6.32435
O 2.48859 20.2805 7.59414
O 3.89864 21.4023 8.86454
O 2.47851 20.297 10.2124
O 3.83838 21.5502 11.3508
O 2.56749 20.3784 12.6458
O 3.8635 21.6271 13.8678
O 2.51122 20.3569 15.183
O 3.82631 21.6334 16.4572
O 2.54694 20.2931 17.6751
O 3.87742 21.4901 18.9716
O 2.45951 20.3041 20.2445
O 3.78433 21.4907 21.5592
O 5.04996 22.7483 0.00113271
O 6.30287 1.31167 1.20359
O 5.01172 22.7995 2.55633
O 6.28618 1.36667 3.84284
O 5.11396 0.00461721 5.02111
O 6.34498 1.31978 6.34163
O 5.12958 22.7374 7.59459
O 6.32802 1.33167 8.78695
O 5.15464 22.7535 10.1854
O 6.31826 1.3194 11.3065
O 5.09301 0.0502491 12.5575
O 6.31414 1.28963 13.9066
O 5.07042 0.111791 15.1882
O 6.41896 1.28273 16.4977
O 5.15034 22.7795 17.7656
O 6.30667 1.30384 19.0308
O 4.98573 22.7782 20.4001
O 6.27582 1.31274 21.7084
O 5.003 2.64231 0.0932368
O 6.41617 3.80017 1.32992
O 5.06778 2.58175 2.53577
O 6.36147 3.80445 3.82668
O 5.00967 2.54896 5.06818
O 6.42678 3.80119 6.29058
O 5.02542 2.6016 7.58011
O 6.35141 3.78996 8.87384
O 5.02712 2.56058 10.1168
O 6.32663 3.71079 11.3393
O 5.11523 2.5216 12.564
O 6.33589 3.77251 13.8658
O 5.15741 2.51118 15.2246
O 6.4551 3.78842 16.4742
O 5.09826 2.48057 17.742
O 6.35537 3.71479 19.1091
O 5.02765 2.48431 20.3386
O 6.29221 3.79943 21.6106
O 5.07989 5.09307 0.0836846
O 6.42555 6.34924 1.24038
O 5.12857 5.05568 2.52672
O 6.41707 6.31966 3.77935
O 5.10544 5.14969 5.08536
O 6.44193 6.33688 6.33679
O 5.15933 5.05667 7.5563
O 6.3856 6.33518 8.92603
O 5.15921 4.9643 10.1388
O 6.36805 6.39677 11.2965
O 5.17208 5.08456 12.5853
O 6.31686 6.35893 13.9314
O 5.13092 5.01434 15.2534
O 6.39187 6.33618 16.5063
O 5.13491 4.98681 17.7157
O 6.29725 6.33164 19.1171
O 5.04423 4.99604 20.297
O 6.30474 6.31481 21.6945
O 5.11789 7.71154 0.147927
O 6.47026 8.86321 1.40146
O 5.09595 7.57338 2.53753
O 6.34194 8.90019 3.83258
O 5.14302 7.56822 5.05419
O 6.35159 8.87599 6.33677
O 5.12334 7.56206 7.61412
O 6.31746 8.89483 8.91695
O 5.0577 7.64581 10.0606
O 6.27278 8.93902 11.396
O 5.04583 7.58291 12.7054
O 6.35776 8.85816 13.9457
O 4.99985 7.54431 15.2112
O 6.24542 8.82297 16.4616
O 5.06503 7.56293 17.7725
O 6.31047 8.83314 19.0856
O 5.0668 7.55338 20.3546
O 6.29104 8.8849 21.5758
O 5.06181 10.0813 0.0827551
O 6.35256 11.4387 1.32594
O 5.05659 10.1287 2.5104
O 6.27821 11.3165 3.80849
O 5.05475 10.1598 5.11581
O 6.35203 11.4521 6.38365
O 5.01228 10.1213 7.54309
O 6.33319 11.3671 8.75525
O 5.11277 10.2124 10.0969
O 6.32038 11.4514 11.4127
O 5.04951 10.0498 12.6667
O 6.29329 11.4297 13.9357
O 4.99165 10.1358 15.1723
O 6.28351 11.4072 16.3887
O 4.95769 10.1652 17.7334
O 6.24806 11.4455 19.0453
O 5.01112 10.1465 20.3061
O 6.24596 11.4549 21.4632
O 5.12393 12.7486 0.036136
O 6.35793 13.9408 1.3098
O 5.05681 12.7053 2.62075
O 6.31337 13.9723 3.78797
O 5.06551 12.6854 5.06975
O 6.36292 13.9943 6.25647
O 5.0397 12.7789 7.60874
O 6.30104 13.9739 8.87306
O 5.07886 12.7464 10.059
O 6.36037 13.9846 11.4244
O 5.01146 12.6838 12.6717
O 6.27578 13.9072 13.8813
O 4.96728 12.6754 15.1488
O 6.34547 13.8262 16.445
O 5.1005 12.5863 17.6841
O 6.29409 13.9606 18.9142
O 4.9932 12.7003 20.2705
O 6.26118 14.011 21.5596
O 5.08831 15.3172 0.0122487
O 6.32871 16.5028 1.20221
O 5.11984 15.2057 2.53113
O 6.34947 16.5456 3.76033
O 5.11021 15.326 5.01736
O 6.28888 16.5738 6.43184
O 5.06933 15.1427 7.62725
O 6.3179 16.4839 8.76842
O 5.03126 15.3027 10.158
O 6.21846 16.569 11.4646
O 4.91622 15.1836 12.6696
O 6.32413 16.482 13.8801
O 5.0155 15.162 15.2303
O 6.27055 16.5042 16.4426
O 5.11774 15.2264 17.7511
O 6.34059 16.5076 19.1134
O 4.98124 15.2072 20.2941
O 6.31966 16.4001 21.5428
O 5.02184 17.7879 0.00414152
O 6.33144 19.0288 1.29827
O 5.06068 17.7541 2.50666
O 6.39782 19.0498 3.77876
O 5.05436 17.726 5.02607
O 6.39189 19.0186 6.29875
O 5.02229 17.9153 7.64108
O 6.36639 19.0043 8.9384
O 5.0275 17.7516 10.1113
O 6.36101 18.8896 11.4429
O 4.98018 17.7702 12.7164
O 6.29126 19.0453 13.9491
O 5.0728 17.7652 15.1512
O 6.31496 18.9877 16.4617
O 5.10381 17.7819 17.8195
O 6.37902 19.0731 19.1436
O 5.07059 17.7368 20.4114
O 6.33964 19.0151 21.6283
O 5.19089 20.461 0.00945041
O 6.383 21.6498 1.33756
O 5.12574 20.2968 2.61252
O 6.38062 21.6057 3.75162
O 5.08525 20.2858 5.06269
O 6.41006 21.597 6.27758
O 5.02096 20.2283 7.57867
O 6.27514 21.4932 8.85504
O 4.9859 20.1203 10.2542
O 6.35598 21.4534 11.4245
O 4.99268 20.1749 12.6623
O 6.2598 21.5654 13.8841
O 5.03928 20.3341 15.2394
O 6.33471 21.5538 16.4392
O 5.1659 20.2488 17.7139
O 6.37622 21.5595 19.0621
O 5.07336 20.3032 20.3611
O 6.43852 21.5896 21.5555
O 7.6317 0.0730947 0.0788402
O 8.99715 1.34624 1.22114
O 7.57242 0.180769 2.48977
O 8.93024 1.25231 3.80058
O 7.59756 0.145543 5.03396
O 8.91285 1.29177 6.38108
O 7.52694 22.7963 7.63382
O 8.89298 1.171 8.92993
O 7.53247 22.7926 10.0787
O 8.84283 1.24318 11.306
O 7.49975 22.8049 12.6217
O 8.8244 1.14618 13.9132
O 7.5227 22.7687 15.1884
O 8.82022 1.24759 16.445
O 7.66157 0.0137637 17.8227
O 8.94521 1.27829 19.1636
O 7.60019 0.111926 20.3239
O 8.91146 1.28437 21.6832
O 7.63851 2.58571 0.0321081
O 8.9359 3.79244 1.2862
O 7.63324 2.48418 2.53456
O 8.92049 3.77809 3.77938
O 7.75767 2.58183 5.09264
O 9.00078 3.90495 6.39795
O 7.72425 2.58592 7.63642
O 8.96553 3.79723 8.93563
O 7.63079 2.55902 10.0307
O 8.88396 3.76401 11.3788
O 7.65555 2.53569 12.6064
O 8.93949 3.80986 13.9043
O 7.65869 2.55817 15.2018
O 8.93467 3.73738 16.5009
O 7.62409 2.55796 17.8507
O 8.91936 3.78894 19.1534
O 7.57492 2.50903 20.371
O 8.97947 3.78162 21.6435
O 7.66338 5.05316 22.7797
O 8.95232 6.3696 1.28251
O 7.7299 5.09719 2.59299
O 8.87454 6.37151 3.93047
O 7.66635 5.0434 5.02438
O 8.84126 6.38284 6.36443
O 7.70206 5.08244 7.58911
O 8.88023 6.32747 8.87927
O 7.64439 5.01743 10.1704
O 8.91813 6.31077 11.4342
O 7.54726 5.10449 12.6324
O 8.87486 6.36863 13.8953
O 7.63286 5.12382 15.172
O 8.86582 6.32033 16.48
O 7.60308 4.97703 17.7952
O 8.86015 6.41348 19.0427
O 7.6191 5.10763 20.3278
O 8.8599 6.34225 21.6129
O 7.64602 7.61663 0.023548
O 8.97051 8.85392 1.32802
O 7.75345 7.62274 2.62714
O 8.90216 8.91059 3.92209
O 7.60932 7.67571 5.09006
O 8.93297 8.82795 6.39059
O 7.55949 7.67281 7.62236
O 8.90468 8.85753 8.95637
O 7.65589 7.66176 10.1382
O 8.88532 8.90782 11.5079
O 7.54218 7.59733 12.6045
O 8.78672 8.81175 13.9554
O 7.62628 7.55261 15.205
O 8.79121 8.84234 16.4315
O 7.58756 7.56408 17.7842
O 8.78074 8.8801 19.0353
O 7.55429 7.61639 20.4335
O 8.87086 8.93697 21.5438
O 7.58707 10.214 22.8059
O 8.76413 11.417 1.33174
O 7.67227 10.1526 2.60361
O 8.88725 11.458 3.82843
O 7.64091 10.1852 5.15572
O 8.91769 11.5082 6.30722
O 7.58094 10.115 7.66354
O 8.8217 11.3775 8.99259
O 7.6096 10.1782 10.2135
O 8.86283 11.4156 11.508
O 7.53761 10.1709 12.6808
O 8.8835 11.3568 13.9545
O 7.55636 10.122 15.225
O 8.82981 11.4286 16.3843
O 7.50099 10.1473 17.6727
O 8.79583 11.3569 19.0279
O 7.48398 10.0904 20.2654
O 8.78768 11.3895 21.4062
O 7.5776 12.6406 22.7161
O 8.86588 13.9852 1.22026
O 7.57426 12.6756 2.60977
O 8.92436 13.9893 3.80862
O 7.60748 12.6941 5.04995
O 8.86435 13.8703 6.3193
O 7.61568 12.752 7.56549
O 8.88275 14.0175 8.86819
O 7.622 12.7329 10.1768
O 8.91667 14.0311 11.5004
O 7.64536 12.7262 12.6858
O 8.81318 14.1255 14
O 7.59047 12.6806 15.0849
O 8.84791 13.8122 16.5205
O 7.55316 12.4744 17.703
O 8.8832 13.8336 18.9346
O 7.53977 12.7675 20.3207
O 8.95277 13.9443 21.5031
O 7.59614 15.1165 22.7783
O 8.93372 16.3662 1.24273
O 7.66684 15.2204 2.47036
O 8.85785 16.4906 3.77469
O 7.59199 15.2368 5.03165
O 8.91748 16.4732 6.29807
O 7.56932 15.2568 7.56084
O 8.82225 16.492 8.74604
O 7.44546 15.2902 10.1393
O 8.84058 16.4114 11.4238
O 7.55468 15.2298 12.621
O 8.84 16.4777 13.9499
O 7.5131 15.2911 15.2933
O 8.83397 16.5821 16.4785
O 7.59559 15.2114 17.7155
O 8.83427 16.4746 19.0397
O 7.67322 15.1822 20.2556
O 8.90312 16.4494 21.5701
O 7.70561 17.7548 0.0576076
O 8.89655 19.1017 1.27369
O 7.74673 17.7381 2.49909
O 8.89554 19.0777 3.84259
O 7.50803 17.7139 5.06081
O 8.86085 19.084 6.36302
O 7.61905 17.7051 7.53224
O 8.78762 18.9332 8.89657
O 7.59185 17.6641 10.0758
O 8.87028 18.9012 11.427
O 7.70823 17.6991 12.7151
O 8.91223 19.1511 13.8924
O 7.61108 17.8018 15.1792
O 8.82143 19.0364 16.4317
O 7.54431 17.7152 17.8737
O 8.85789 19.0548 19.0651
O 7.61723 17.7876 20.4008
O 8.89737 19.1184 21.6405
O 7.6229 20.2993 0.0675063
O 8.89978 21.6275 1.28275
O 7.66694 20.3681 2.55784
O 8.87375 21.6411 3.86483
O 7.60439 20.3341 5.05805
O 8.82275 21.6105 6.33451
O 7.55982 20.2523 7.59045
O 8.81242 21.4667 9.00147
O 7.48956 20.2782 10.2063
O 8.80047 21.5567 11.4415
O 7.58725 20.1482 12.6441
O 8.80256 21.5131 13.9321
O 7.49598 20.2494 15.2278
O 8.88606 21.5688 16.3892
O 7.59935 20.3158 17.7145
O 8.8669 21.5813 19.0488
O 7.61972 20.2765 20.404
O 8.86186 21.5867 21.6027
O 10.2526 0.0379106 0.064313
O 11.5287 1.39599 1.26916
O 10.1992 0.0712609 2.547
O 11.4095 1.34132 3.81823
O 10.1772 22.8157 5.11987
O 11.4141 1.32727 6.32921
O 10.0991 22.725 7.65464
O 11.3521 1.175 8.86881
O 10.1569 22.697 10.1558
O 11.3799 1.23647 11.4341
O 10.1617 22.7249 12.6481
O 11.4023 1.22744 13.9911
O 10.174 22.7741 15.1508
O 11.3837 1.28393 16.4947
O 10.0938 0.121823 17.7077
O 11.3638 1.24035 19.039
O 10.22 0.00321158 20.3726
O 11.4838 1.33097 21.5316
O 10.3 2.60062 0.0785491
O 11.4659 3.92053 1.27293
O 10.1851 2.6321 2.63322
O 11.5777 3.94896 3.78961
O 10.1701 2.60414 5.08506
O 11.4533 3.87592 6.40974
O 10.0833 2.53967 7.68905
O 11.4113 3.81318 8.86687
O 10.2122 2.49956 10.1429
O 11.361 3.75233 11.4471
O 10.1338 2.43536 12.664
O 11.3787 3.76649 13.9043
O 10.0946 2.46929 15.1373
O 11.2741 3.72627 16.3895
O 10.0985 2.48494 17.8308
O 11.3594 3.85486 19.0355
O 10.207 2.5259 20.3604
O 11.4335 3.77694 21.5246
O 10.186 5.02373 0.0135278
O 11.4458 6.3674 1.26118
O 10.1565 5.07942 2.56918
O 11.4421 6.34278 3.77454
O 10.2598 5.14273 5.05078
O 11.4342 6.32769 6.35619
O 10.1877 5.10985 7.66889
O 11.4446 6.32347 9.036
O 10.189 5.05732 10.1439
O 11.4665 6.27526 11.3774
O 10.1642 5.08931 12.7254
O 11.4769 6.28434 13.9523
O 10.0547 5.05023 15.1854
O 11.4785 6.36855 16.4227
O 10.1485 5.06525 17.7234
O 11.4035 6.40684 18.9969
O 10.119 5.16566 20.2707
O 11.4 6.31858 21.5299
O 10.1117 7.56772 22.7405
O 11.3762 8.9169 1.32147
O 10.1994 7.63276 2.57899
O 11.4329 8.95577 3.8212
O 10.1772 7.61406 5.09421
O 11.4702 8.87598 6.38035
O 10.1859 7.59387 7.69511
O 11.4169 8.88274 8.85008
O 10.1549 7.6306 10.2216
O 11.4516 8.90834 11.4746
O 10.1971 7.54162 12.6852
O 11.4086 8.94296 13.9458
O 10.1907 7.58291 15.1868
O 11.3589 8.89638 16.4263
O 10.1542 7.60966 17.7
O 11.3727 8.83917 18.9771
O 10.103 7.61248 20.3868
O 11.3251 8.98926 21.6056
O 10.0223 10.2115 22.7746
O 11.3954 11.3562 1.26172
O 10.1439 10.2102 2.5512
O 11.425 11.4223 3.81421
O 10.1765 10.1728 5.11763
O 11.4455 11.4498 6.42095
O 10.0909 10.1309 7.63311
O 11.4111 11.4855 8.89567
O 10.2216 10.141 10.2082
O 11.4032 11.5115 11.4353
O 10.1659 10.1145 12.7138
O 11.4514 11.4307 14.0145
O 10.1291 10.1051 15.1906
O 11.347 11.4154 16.3811
O 10.1003 10.0986 17.7147
O 11.3657 11.3532 19.0065
O 10.1008 10.1015 20.263
O 11.3704 11.4146 21.5668
O 10.0539 12.5541 0.0402615
O 11.4409 13.8021 1.28466
O 10.1606 12.688 2.51199
O 11.4646 13.9949 3.70315
O 10.2129 12.7679 4.98669
O 11.4771 13.8907 6.3699
O 10.0787 12.633 7.62322
O 11.4039 13.9676 8.8578
O 10.1621 12.7032 10.2234
O 11.4406 13.9234 11.5272
O 10.1586 12.7087 12.7856
O 11.4618 13.9994 14.0579
O 10.1441 12.7737 15.2162
O 11.4601 13.981 16.5291
O 10.1328 12.5773 17.7495
O 11.3358 13.9534 19.0147
O 10.0934 12.6323 20.2712
O 11.4156 13.99 21.4663
O 10.1714 15.1719 22.7509
O 11.3767 16.5303 1.25601
O 10.2582 15.1572 2.46776
O 11.4525 16.5168 3.73638
O 10.2221 15.287 5.03892
O 11.4018 16.5031 6.37515
O 10.1746 15.2078 7.56121
O 11.4273 16.4874 8.8398
O 10.164 15.2901 10.1192
O 11.3952 16.393 11.4637
O 10.1785 15.1771 12.7692
O 11.4376 16.5068 13.9725
O 10.097 15.2152 15.2907
O 11.4506 16.4507 16.4645
O 10.0348 15.2068 17.742
O 11.329 16.463 18.9969
O 10.1298 15.2588 20.2759
O 11.446 16.497 21.534
O 10.1 17.7247 0.0298138
O 11.3773 19.0187 1.26126
O 10.1008 17.7955 2.6012
O 11.3708 19.0291 3.81098
O 10.2319 17.7228 4.983
O 11.4036 19.0025 6.28654
O 10.1548 17.7659 7.67425
O 11.4119 18.9884 8.89556
O 10.1391 17.6958 10.1336
O 11.4229 18.9423 11.4469
O 10.148 17.6435 12.6919
O 11.3884 19.0236 13.8971
O 10.0971 17.73 15.2205
O 11.3877 19.0164 16.5252
O 10.1062 17.7605 17.7384
O 11.3419 19.1462 18.9914
O 10.1329 17.754 20.2544
O 11.4149 19.0735 21.567
O 10.2028 20.4555 0.0605835
O 11.4986 21.626 1.29243
O 10.135 20.3611 2.5835
O 11.473 21.6009 3.77855
O 10.1479 20.3134 5.13289
O 11.4646 21.5616 6.38281
O 10.0692 20.1829 7.70308
O 11.4342 21.4753 8.84306
O 10.172 20.1667 10.1409
O 11.4207 21.3718 11.4062
O 10.1684 20.2762 12.6222
O 11.4403 21.5328 13.8785
O 10.1422 20.2934 15.2116
O 11.396 21.5582 16.5728
O 10.0665 20.2872 17.7147
O 11.4006 21.488 19.0328
O 10.1905 20.3184 20.3022
O 11.4971 21.5912 21.5089
O 12.7129 0.0663358 0.0155321
O 14.0292 1.32141 1.25019
O 12.7256 0.0416513 2.49867
O 13.9808 1.25754 3.78203
O 12.6893 22.7984 5.05337
O 13.8581 1.3049 6.34061
O 12.6716 22.7714 7.58968
O 13.9208 1.19864 8.82873
O 12.6513 22.7444 10.1335
O 13.9252 1.25808 11.3882
O 12.6322 22.7849 12.628
O 13.9832 1.2451 13.9662
O 12.7037 22.8013 15.2546
O 13.8632 1.26427 16.4762
O 12.6509 0.0169053 17.7403
O 13.8998 1.23935 19.0159
O 12.6723 22.7711 20.2427
O 13.9711 1.27802 21.5028
O 12.7384 2.60713 0.00851646
O 13.9686 3.80609 1.27574
O 12.7214 2.54516 2.59403
O 13.9229 3.86048 3.79139
O 12.6891 2.53319 5.05431
O 13.9766 3.82579 6.29627
O 12.6442 2.54402 7.66152
O 13.9554 3.83062 8.87277
O 12.6402 2.48792 10.0848
O 13.9147 3.72324 11.3111
O 12.7099 2.43605 12.6935
O 14.0184 3.74392 13.9063
O 12.7087 2.54824 15.1982
O 13.9753 3.80414 16.4691
O 12.6145 2.52682 17.7255
O 13.9573 3.82828 18.9245
O 12.6546 2.55539 20.1933
O 13.9537 3.84821 21.4746
O 12.769 5.11055 22.7636
O 14.0303 6.46997 1.22731
O 12.8359 5.14049 2.47327
O 14.0165 6.35249 3.90866
O 12.7185 5.08472 5.12901
O 13.8962 6.48481 6.34468
O 12.769 5.12773 7.58475
O 13.8766 6.35451 8.99841
O 12.7019 5.03351 10.229
O 13.9746 6.42819 11.376
O 12.7631 5.02165 12.6242
O 13.8335 6.35158 13.9241
O 12.6676 4.92238 15.2078
O 13.8583 6.38095 16.4097
O 12.6307 5.0558 17.7281
O 13.9155 6.37247 18.9912
O 12.7041 5.1084 20.2157
O 13.9973 6.41373 21.5988
O 12.5768 7.67545 22.723
O 13.9592 8.84508 1.23666
O 12.7404 7.62198 2.58743
O 13.9708 8.96158 3.84581
O 12.6602 7.71732 5.04314
O 13.963 8.83 6.35409
O 12.6281 7.62181 7.70771
O 13.9113 8.89548 8.89516
O 12.6085 7.66316 10.1509
O 13.9868 8.90631 11.3389
O 12.6956 7.63839 12.6765
O 13.9394 8.81946 13.9733
O 12.6405 7.66084 15.1886
O 13.9066 8.85584 16.574
O 12.6124 7.65201 17.7813
O 13.8417 8.86159 18.9678
O 12.6592 7.59078 20.2586
O 13.9423 8.84617 21.471
O 12.7409 10.0801 0.00347328
O 13.9941 11.4215 1.20938
O 12.7614 10.1496 2.53869
O 13.9853 11.4184 3.78701
O 12.7525 10.2077 5.14876
O 13.9856 11.5264 6.3028
O 12.7423 10.2289 7.66436
O 14.0153 11.5531 8.88997
O 12.7351 10.2165 10.0904
O 13.9804 11.3994 11.4449
O 12.7457 10.1961 12.6824
O 14.0009 11.4096 13.997
O 12.7071 10.0997 15.2418
O 13.9522 11.3852 16.5404
O 12.5999 10.1935 17.6485
O 13.8834 11.3403 19.1053
O 12.5667 10.1719 20.2371
O 13.9686 11.3884 21.5992
O 12.6168 12.6726 22.725
O 13.8733 13.9509 1.30265
O 12.7408 12.522 2.4718
O 13.857 13.9387 3.80812
O 12.6647 12.7399 5.02569
O 13.893 14.0001 6.35318
O 12.7175 12.6329 7.60859
O 13.9126 13.9741 8.85981
O 12.6427 12.7167 10.1087
O 13.8987 13.9811 11.4023
O 12.7129 12.6891 12.7233
O 13.9492 13.9373 14.0136
O 12.7282 12.6423 15.3268
O 13.9912 14.0021 16.5395
O 12.6995 12.6397 17.8263
O 13.9847 13.8926 19.0683
O 12.6837 12.6543 20.3063
O 13.9387 13.9614 21.5384
O 12.6328 15.2092 0.0540755
O 13.9508 16.4432 1.26403
O 12.6146 15.3009 2.47152
O 13.9334 16.4414 3.7861
O 12.6717 15.2591 5.14771
O 14.0155 16.5014 6.32488
O 12.7034 15.2295 7.61474
O 13.9236 16.5492 8.82598
O 12.5949 15.1882 10.1933
O 13.918 16.4108 11.4602
O 12.6896 15.2037 12.7763
O 13.947 16.5039 14.022
O 12.6991 15.2599 15.2341
O 13.9156 16.5449 16.6244
O 12.6867 15.2189 17.8428
O 13.9422 16.4519 19.0309
O 12.7206 15.2441 20.2806
O 13.9237 16.5105 21.5564
O 12.6819 17.7697 0.0512408
O 13.8953 19.0248 1.30367
O 12.7152 17.7967 2.50874
O 13.9717 19.0746 3.79992
O 12.6244 17.7655 5.09747
O 13.9536 19.0285 6.25223
O 12.6915 17.7923 7.549
O 13.9498 18.9711 8.90767
O 12.7014 17.7017 10.2444
O 14.0568 18.957 11.4435
O 12.7 17.7252 12.671
O 14.0088 18.9635 13.9683
O 12.6711 17.7986 15.2899
O 14.0255 18.9536 16.5006
O 12.6037 17.8137 17.8123
O 13.8725 19.0894 18.9774
O 12.5907 17.849 20.2374
O 13.9968 18.9949 21.4849
O 12.6648 20.2325 22.7624
O 14.0194 21.6078 1.26354
O 12.6922 20.3506 2.55348
O 13.9735 21.5287 3.78692
O 12.6669 20.3129 5.04799
O 13.8978 21.4996 6.27887
O 12.678 20.2514 7.60504
O 14.0264 21.517 8.86109
O 12.7454 20.2078 10.1408
O 13.9197 21.4895 11.424
O 12.7327 20.2187 12.6386
O 13.8999 21.4905 13.8951
O 12.5913 20.2906 15.1338
O 13.9748 21.4507 16.5099
O 12.7758 20.2895 17.748
O 13.9551 21.5215 18.9921
O 12.666 20.2672 20.2789
O 13.9433 21.5952 21.5193
O 15.2421 0.146525 0.00626183
O 16.5494 1.21312 1.39311
O 15.1978 22.8003 2.63076
O 16.5432 1.34309 3.87618
O 15.2115 22.8065 5.05502
O 16.5249 1.38436 6.32129
O 15.2308 22.7868 7.49244
O 16.4744 1.23361 8.88134
O 15.2582 22.7489 10.1616
O 16.553 1.22412 11.3782
O 15.2095 22.7303 12.5841
O 16.4398 1.16839 13.9153
O 15.1718 22.7754 15.1798
O 16.5261 1.23427 16.4826
O 15.1609 0.0695295 17.7187
O 16.4511 1.25455 19.0078
O 15.2234 0.027448 20.263
O 16.4604 1.34484 21.5261
O 15.2334 2.61812 22.8039
O 16.4961 3.85485 1.28488
O 15.2021 2.62479 2.56817
O 16.4962 3.83414 3.79172
O 15.167 2.56246 5.05387
O 16.4048 3.77379 6.27186
O 15.2078 2.45436 7.6405
O 16.4364 3.76575 8.89079
O 15.1404 2.47732 10.0815
O 16.3951 3.72389 11.4008
O 15.1696 2.45055 12.6216
O 16.3837 3.81201 13.9135
O 15.1579 2.45413 15.1863
O 16.3034 3.87194 16.3745
O 15.2485 2.51701 17.7545
O 16.5519 3.88533 18.9392
O 15.2697 2.56042 20.25
O 16.4976 3.86203 21.5489
O 15.2616 5.09627 0.033738
O 16.4596 6.35332 1.24681
O 15.2066 5.08289 2.53969
O 16.5375 6.36698 3.83678
O 15.2494 5.11407 5.03444
O 16.4205 6.30871 6.35357
O 15.0899 5.09189 7.56341
O 16.4111 6.19013 8.85246
O 15.2341 5.09739 10.1467
O 16.4042 6.44303 11.3541
O 15.1396 5.013 12.6271
O 16.4492 6.26505 13.8739
O 15.1192 5.10376 15.178
O 16.5675 6.31867 16.4014
O 15.2125 5.13556 17.7412
O 16.4393 6.32599 18.9262
O 15.1867 5.07306 20.1512
O 16.3859 6.31617 21.5147
O 15.3073 7.70441 22.7735
O 16.4906 8.9703 1.30606
O 15.2854 7.66681 2.52026
O 16.4791 8.88716 3.79914
O 15.2475 7.65985 5.07969
O 16.4715 8.89471 6.34923
O 15.1775 7.59053 7.69974
O 16.5149 8.93191 8.8537
O 15.2931 7.6702 10.0622
O 16.3774 8.96262 11.4231
O 15.1466 7.66837 12.7422
O 16.4892 8.91825 13.9842
O 15.2212 7.61899 15.2169
O 16.5357 8.85824 16.3944
O 15.2422 7.53601 17.745
O 16.5314 8.90817 18.9654
O 15.1984 7.70459 20.2171
O 16.5739 8.9807 21.4622
O 15.2457 10.0437 22.7548
O 16.4805 11.3822 1.23345
O 15.2231 10.1738 2.49257
O 16.4403 11.4376 3.84272
O 15.2183 10.1265 5.10264
O 16.5273 11.4593 6.35522
O 15.2041 10.1372 7.61784
O 16.471 11.4293 8.80296
O 15.2276 10.1853 10.0726
O 16.4642 11.3845 11.4062
O 15.1511 10.0935 12.7626
O 16.4823 11.4275 13.8832
O 15.191 10.1869 15.2816
O 16.4989 11.3729 16.4742
O 15.1573 10.075 17.7059
O 16.4928 11.3509 18.9355
O 15.2372 10.1423 20.2843
O 16.4728 11.3888 21.5958
O 15.2666 12.7204 22.7564
O 16.5146 14.0563 1.17373
O 15.2883 12.7432 2.43528
O 16.4755 13.9667 3.75595
O 15.1892 12.8063 5.03816
O 16.5228 13.9738 6.31711
O 15.2077 12.7105 7.54456
O 16.3531 13.9797 8.87323
O 15.2439 12.7234 10.1522
O 16.41 14.0574 11.3845
O 15.2662 12.7668 12.6841
O 16.5214 13.8881 14.0322
O 15.2173 12.6389 15.3001
O 16.512 13.9837 16.5367
O 15.2354 12.6698 17.8553
O 16.5151 13.973 19.0719
O 15.2469 12.6401 20.3589
O 16.516 13.9581 21.56
O 15.2537 15.2038 22.7703
O 16.435 16.4874 1.25836
O 15.2249 15.1713 2.54211
O 16.4734 16.4797 3.74088
O 15.1968 15.1928 5.07576
O 16.4735 16.4976 6.21073
O 15.126 15.1244 7.5025
O 16.4781 16.5091 8.75656
O 15.1465 15.2623 10.1349
O 16.4702 16.4385 11.5172
O 15.2324 15.2109 12.7363
O 16.5569 16.4714 13.961
O 15.2771 15.2062 15.3169
O 16.5195 16.5219 16.533
O 15.22 15.2118 17.8145
O 16.498 16.4468 19.0193
O 15.2099 15.2245 20.3402
O 16.4549 16.5503 21.5515
O 15.1537 17.7468 0.0498566
O 16.4483 18.9948 1.22014
O 15.1846 17.7199 2.5276
O 16.4768 19.1057 3.76844
O 15.2716 17.6729 5.02479
O 16.4764 18.9988 6.26682
O 15.2365 17.7966 7.58338
O 16.4832 18.9265 8.92488
O 15.2272 17.7132 10.1532
O 16.5224 18.9297 11.3794
O 15.2207 17.7342 12.802
O 16.5227 18.9723 14.111
O 15.3188 17.7521 15.296
O 16.6096 19.0321 16.5017
O 15.2388 17.754 17.8439
O 16.5478 19.0444 19.1032
O 15.1848 17.6831 20.2015
O 16.3778 19.013 21.5261
O 15.1854 20.2772 22.8106
O 16.4215 21.6444 1.26338
O 15.2272 20.2574 2.53446
O 16.5475 21.5141 3.83401
O 15.2244 20.3341 5.00155
O 16.4883 21.5367 6.33295
O 15.2263 20.2254 7.61991
O 16.4628 21.531 8.91156
O 15.2108 20.2201 10.1354
O 16.5552 21.459 11.3831
O 15.3124 20.2213 12.747
O 16.5271 21.5984 13.9326
O 15.2145 20.2768 15.1623
O 16.4381 21.5296 16.4824
O 15.2653 20.2809 17.8059
O 16.5083 21.5086 19.084
O 15.218 20.3282 20.2557
O 16.3634 21.6158 21.5368
O 17.817 0.0428025 22.7969
O 19.0627 1.33221 1.29696
O 17.8226 0.00374856 2.63991
O 18.9992 1.34771 3.80597
O 17.8504 0.0148579 5.08608
O 19.0413 1.25207 6.36319
O 17.6759 0.0757612 7.6283
O 18.9359 1.30483 8.88427
O 17.7314 0.00508374 10.1154
O 18.9671 1.33543 11.3674
O 17.7289 22.7721 12.6581
O 18.9928 1.25119 13.9131
O 17.7648 22.7443 15.1938
O 18.8429 1.35364 16.4493
O 17.7027 22.7424 17.7455
O 18.9098 1.28221 19.0526
O 17.7208 22.7435 20.3456
O 19.0044 1.31597 21.5856
O 17.6471 2.51191 0.0495069
O 19.0189 3.82218 1.3178
O 17.7616 2.51887 2.53325
O 19.0293 3.88693 3.72446
O 17.826 2.61378 5.08147
O 19.0477 3.78477 6.42319
O 17.6837 2.5359 7.61728
O 18.9788 3.70793 8.9057
O 17.6882 2.55169 10.1925
O 19.0216 3.85197 11.3596
O 17.7352 2.58275 12.6619
O 19.0595 3.74679 13.9322
O 17.7334 2.54724 15.1465
O 18.9871 3.78953 16.456
O 17.7043 2.65172 17.6765
O 19.0675 3.85534 18.9724
O 17.7763 2.59819 20.3014
O 18.933 3.92519 21.5638
O 17.6441 5.11366 22.8009
O 18.9851 6.27393 1.24133
O 17.6548 5.09386 2.56191
O 18.9726 6.37036 3.76785
O 17.7969 5.08369 5.07852
O 18.9422 6.38968 6.3419
O 17.6702 4.9931 7.58544
O 18.9236 6.25658 8.90754
O 17.6935 4.99718 10.1616
O 18.9791 6.33919 11.3909
O 17.6479 4.99541 12.5843
O 18.9452 6.24582 13.894
O 17.7451 5.00039 15.2135
O 19.0361 6.27577 16.4346
O 17.7882 5.13556 17.7703
O 19.0922 6.33497 19.0663
O 17.757 5.07091 20.1963
O 18.9919 6.27006 21.5254
O 17.7669 7.66329 22.7838
O 18.9945 8.8866 1.26394
O 17.7302 7.57942 2.49006
O 19.0239 8.78634 3.7844
O 17.7264 7.57849 5.10121
O 19.053 8.93258 6.25854
O 17.6725 7.56638 7.61132
O 19.0199 8.76214 8.85451
O 17.7321 7.63966 10.121
O 19.0654 8.89201 11.4367
O 17.6917 7.65419 12.6285
O 19.0311 8.86686 13.9254
O 17.7918 7.60529 15.1129
O 19.0545 8.89015 16.4736
O 17.7911 7.61732 17.7369
O 19.1214 8.86047 18.9521
O 17.8285 7.56838 20.2934
O 19.0632 8.86841 21.4657
O 17.8901 10.1018 0.036454
O 18.9874 11.4003 1.28129
O 17.7702 10.1909 2.55205
O 18.9653 11.5257 3.82234
O 17.812 10.1559 5.04119
O 18.9763 11.4116 6.29929
O 17.8142 10.207 7.65267
O 19.0472 11.4321 9.00742
O 17.704 10.1099 10.1278
O 18.9527 11.3799 11.39
O 17.7634 10.1276 12.7462
O 18.9905 11.4777 14.0151
O 17.707 10.252 15.1933
O 19.0679 11.3239 16.4505
O 17.8115 10.1418 17.779
O 19.0232 11.4628 18.9553
O 17.7811 10.1844 20.1978
O 18.997 11.4371 21.5591
O 17.7401 12.6929 0.0125437
O 19.0144 13.9562 1.22288
O 17.6424 12.7398 2.49265
O 18.9787 13.8501 3.75968
O 17.7385 12.7567 5.07555
O 19.0051 13.9862 6.33294
O 17.7469 12.7054 7.62842
O 18.9929 13.9809 8.87899
O 17.6637 12.6823 10.0685
O 18.991 13.9037 11.3156
O 17.6538 12.7028 12.6365
O 19.0589 13.9465 13.8838
O 17.7024 12.6305 15.2799
O 19.0119 13.9905 16.4749
O 17.7498 12.6126 17.7068
O 18.9257 13.9146 19.0305
O 17.7708 12.625 20.2415
O 18.9366 13.9271 21.5749
O 17.81 15.2826 22.7661
O 19.0125 16.5125 1.24416
O 17.6724 15.1996 2.51374
O 18.9981 16.3876 3.69628
O 17.7501 15.239 5.00661
O 19.0473 16.4262 6.30595
O 17.6496 15.2348 7.56269
O 18.9379 16.3789 8.84947
O 17.6898 15.2139 10.0787
O 19.0031 16.4144 11.5026
O 17.7642 15.1552 12.6844
O 19.0296 16.4389 13.9267
O 17.762 15.26 15.2535
O 19.0413 16.4238 16.577
O 17.7428 15.2283 17.8549
O 19.0754 16.4386 19.0175
O 17.7336 15.195 20.2859
O 19.1127 16.4414 21.4999
O 17.7299 17.7466 22.7875
O 18.9698 19.0062 1.25883
O 17.7517 17.7343 2.45866
O 18.9775 18.9994 3.72655
O 17.758 17.7103 5.02088
O 19.0484 18.9426 6.41644
O 17.6845 17.6347 7.53781
O 19.0167 18.8329 8.88681
O 17.7327 17.5894 10.1155
O 18.9727 18.903 11.4265
O 17.7776 17.7118 12.724
O 18.9915 19.0091 13.9505
O 17.8602 17.7278 15.2629
O 19.065 19.1247 16.5571
O 17.8049 17.7267 17.775
O 19.0162 19.0552 19.0407
O 17.7552 17.6985 20.2391
O 18.9819 18.9814 21.5674
O 17.6857 20.2761 22.76
O 19.0104 21.5421 1.22548
O 17.7159 20.3504 2.46138
O 19.0789 21.4614 3.80192
O 17.8234 20.2376 5.09028
O 18.9654 21.5721 6.47906
O 17.6956 20.1712 7.65114
O 18.8926 21.4547 8.84537
O 17.8567 20.1887 10.111
O 19.0226 21.5308 11.4223
O 17.7918 20.2287 12.6811
O 18.9985 21.5849 13.9198
O 17.7762 20.3069 15.3028
O 19.0796 21.5801 16.4226
O 17.7 20.275 17.7696
O 19.0022 21.5379 18.9823
O 17.7153 20.2384 20.3942
O 19.05 21.5159 21.5702
O 20.3456 22.7831 22.7542
O 21.4903 1.25676 1.27401
O 20.3201 0.050469 2.58097
O 21.5359 1.32472 3.92312
O 20.2622 0.0514149 5.11619
O 21.551 1.25849 6.40797
O 20.2066 22.7622 7.68328
O 21.5143 1.24022 8.90223
O 20.2261 22.781 10.0692
O 21.4761 1.30049 11.3988
O 20.2094 0.0130533 12.54
O 21.5244 1.28327 13.904
O 20.3249 0.0207604 15.171
O 21.5403 1.26005 16.4125
O 20.2464 0.0356988 17.6076
O 21.4479 1.2231 19.0396
O 20.2933 0.0923339 20.2863
O 21.5451 1.20859 21.5522
O 20.3497 2.65469 22.768
O 21.5001 3.93234 1.30301
O 20.295 2.53791 2.56113
O 21.5107 3.80424 3.86904
O 20.2989 2.56751 5.1349
O 21.5054 3.81179 6.31505
O 20.376 2.53656 7.67729
O 21.5561 3.82299 8.87083
O 20.3137 2.47506 10.1005
O 21.4965 3.78979 11.3769
O 20.2823 2.49918 12.6818
O 21.5366 3.80694 13.8723
O 20.2037 2.50168 15.1935
O 21.4869 3.72139 16.4028
O 20.2337 2.48092 17.6561
O 21.5439 3.73949 19.0724
O 20.2214 2.49046 20.2634
O 21.5891 3.80284 21.499
O 20.2621 5.08969 22.7947
O 21.4916 6.3857 1.25668
O 20.3263 5.18197 2.62337
O 21.618 6.38552 3.83376
O 20.2002 5.05864 5.09821
O 21.5081 6.25999 6.39698
O 20.2113 5.04438 7.58169
O 21.607 6.3714 8.7549
O 20.3144 5.19463 10.101
O 21.5892 6.3002 11.4585
O 20.2465 5.08073 12.6334
O 21.5538 6.29571 13.8466
O 20.1913 5.04799 15.1509
O 21.5179 6.27353 16.4107
O 20.3734 5.02482 17.705
O 21.6343 6.30922 18.9781
O 20.3772 5.15137 20.4028
O 21.6727 6.41854 21.5396
O 20.2202 7.57548 22.7348
O 21.4646 8.90936 1.2211
O 20.2492 7.68451 2.55106
O 21.6005 8.82829 3.87194
O 20.3235 7.55515 5.05071
O 21.4198 8.95875 6.39151
O 20.3078 7.60409 7.62854
O 21.6157 8.82911 8.90457
O 20.2319 7.50343 10.1487
O 21.5855 8.7685 11.3366
O 20.2376 7.53255 12.7098
O 21.6119 8.79138 13.7942
O 20.293 7.61056 15.126
O 21.5633 8.88883 16.3934
O 20.3097 7.56262 17.7039
O 21.5501 8.79585 18.9428
O 20.3219 7.5255 20.3469
O 21.6268 8.92203 21.578
O 20.2348 10.0907 22.7337
O 21.4422 11.3425 1.2885
O 20.2487 10.1743 2.56993
O 21.4576 11.4261 3.80941
O 20.2878 10.2164 5.01398
O 21.5377 11.4365 6.31682
O 20.2423 10.2088 7.58397
O 21.4967 11.4444 8.88439
O 20.3413 10.0251 10.1448
O 21.6103 11.4139 11.4171
O 20.2531 10.1763 12.6432
O 21.5166 11.5163 13.8607
O 20.3037 10.0705 15.1395
O 21.5364 11.4028 16.4524
O 20.3605 10.0857 17.6589
O 21.4875 11.4337 18.9652
O 20.3156 10.1744 20.2206
O 21.4771 11.4102 21.5552
O 20.3257 12.7015 0.134529
O 21.5783 13.9811 1.38711
O 20.181 12.7557 2.5475
O 21.5336 13.8773 3.80374
O 20.2928 12.6684 5.13157
O 21.5757 13.9319 6.27269
O 20.3167 12.6251 7.63299
O 21.4672 13.9907 8.83719
O 20.2523 12.6899 10.2254
O 21.5746 13.8968 11.3381
O 20.2872 12.6932 12.6675
O 21.5925 13.8497 13.8962
O 20.2369 12.6747 15.281
O 21.5565 13.9263 16.4309
O 20.3094 12.7785 17.662
O 21.5293 13.9158 18.9861
O 20.2846 12.6915 20.2643
O 21.545 13.9453 21.6512
O 20.2984 15.1991 0.121334
O 21.5858 16.5158 1.3462
O 20.2143 15.1497 2.55652
O 21.4972 16.4192 3.81621
O 20.3037 15.2041 4.98282
O 21.5703 16.3894 6.26673
O 20.3539 15.1555 7.58525
O 21.7083 16.5233 8.76534
O 20.3131 15.2675 10.1306
O 21.5953 16.5245 11.4585
O 20.2996 15.112 12.6569
O 21.4641 16.4254 13.9219
O 20.344 15.1742 15.0691
O 21.5437 16.3965 16.4919
O 20.2578 15.1434 17.7906
O 21.5406 16.4676 18.9884
O 20.2778 15.1843 20.2975
O 21.5585 16.471 21.6599
O 20.3817 17.7672 0.047869
O 21.5339 19.0765 1.34305
O 20.2708 17.8048 2.53665
O 21.5366 19.0201 3.821
O 20.2499 17.7788 5.01945
O 21.5647 18.9646 6.29654
O 20.3405 17.5585 7.63603
O 21.5112 18.8768 8.88329
O 20.3223 17.578 10.1923
O 21.4744 18.9827 11.3824
O 20.3142 17.7535 12.7622
O 21.627 19.0546 13.987
O 20.2745 17.6653 15.1811
O 21.5005 19.0103 16.3839
O 20.2555 17.7473 17.7054
O 21.531 19.0858 19.0123
O 20.3358 17.7188 20.3279
O 21.6371 19.0225 21.4478
O 20.291 20.2336 22.7706
O 21.5013 21.559 1.22849
O 20.2355 20.3396 2.4229
O 21.4897 21.5647 3.81647
O 20.3469 20.2531 5.18969
O 21.5572 21.509 6.38301
O 20.3312 20.1321 7.67239
O 21.5681 21.5339 8.86606
O 20.2999 20.2424 10.2022
O 21.4929 21.5464 11.4248
O 20.2835 20.2348 12.6584
O 21.5086 21.5663 13.9119
O 20.2889 20.3252 15.1904
O 21.5752 21.4546 16.4774
O 20.2935 20.3182 17.7266
O 21.4941 21.5655 19.0066
O 20.2737 20.2512 20.2842
O 21.62 21.5251 21.4951
4374
Lattice="  2.2816291e+01  0.0000000e+00  0.0000000e+00  0.0000000e+00  2.2816291e+01  0.0000000e+00  0.0000000e+00  0.0000000e+00  2.2816291e+01" Properties=species:S:1:pos:R:3
H 0.606358 0.697503 0.540164
H 0.450739 1.95355 1.84723
H 1.88085 0.598388 1.92568
H 1.81573 1.81178 0.498535
H 0.546621 0.511794 3.14264
H 0.62088 1.87811 4.42104
H 1.88441 0.60165 4.41345
H 1.89346 1.74793 3.08673
H 0.537701 0.576907 5.66345
H 0.58478 1.89567 6.94896
H 1.85608 0.558476 7.03965
H 1.92823 1.83349 5.74071
H 0.66103 0.743304 8.26687
H 0.66173 1.82709 9.46187
H 2.08553 0.487059 9.49114
H 1.86862 1.70847 8.16743
H 0.583572 0.532174 10.792
H 0.557421 1.87449 12.1478
H 1.8973 0.663693 11.9428
H 1.69609 1.89159 10.6661
H 0.686202 0.78035 13.2366
H 0.575809 1.99946 14.534
H 1.79677 0.557044 14.5412
H 1.92181 1.8334 13.4835
H 0.751556 0.588325 15.9118
H 0.501654 2.08095 17.0512
H 1.77357 0.761368 17.0603
H 1.90824 1.81049 15.7852
H 0.515948 0.559975 18.2594
H 0.679614 1.89069 19.6913
H 1.81691 0.684379 19.7592
H 1.85322 1.87014 18.4177
H 0.519077 0.693911 20.814
H 0.589722 1.92248 22.2289
H 1.93417 0.60036 22.1004
H 1.83682 1.90478 20.9362
H 0.693558 3.25195 0.652242
H 0.613216 4.40559 1.80519
H 1.89974 2.86147 1.67748
H 1.9964 4.41234 0.64291
H 0.716002 3.12207 2.99281
H 0.590731 4.3744 4.36923
H 1.88419 3.15167 4.45816
H 1.93357 4.40345 3.16579
H 0.661273 3.18995 5.73785
H 0.813822 4.48776 6.7489
H 1.96733 3.05817 6.91517
H 1.92707 4.51951 5.57055
H 0.635353 3.09356 8.21791
H 0.67842 4.43332 9.4368
H 1.95666 3.24093 9.46053
H 1.95079 4.42007 8.18558
H 0.731328 3.22428 10.8029
H 0.69879 4.5354 12.0406
H 2.03315 3.16505 12.0454
H 1.96755 4.5521 10.7995
H 0.754961 3.12286 13.3528
H 0.782044 4.36064 14.5299
H 1.92655 3.1451 14.7395
H 1.92984 4.3153 13.2261
H 0.531383 3.12465 15.74
H 0.589179 4.40367 17.2248
H 1.86241 3.0876 17.0635
H 1.79469 4.46061 15.8352
H 0.722164 3.1879 18.5759
H 0.662982 4.48894 19.6487
H 2.02536 3.21426 19.7631
H 2.00578 4.4424 18.4539
H 0.655363 3.1973 20.9216
H 0.592106 4.55499 22.054
H 1.68855 3.24146 22.2351
H 1.91745 4.53874 20.6936
H 0.564523 5.6625 0.540255
H 0.629921 7.09151 1.80141
H 1.82042 5.72244 1.95746
H 1.87461 7.04989 0.641736
H 0.617155 5.58608 3.145
H 0.390687 6.98984 4.5717
H 1.81306 5.71248 4.34645
H 2.00504 6.98351 3.10902
H 0.626796 5.72488 5.69944
H 0.661184 6.96427 6.91736
H 1.92503 5.74003 6.94488
H 1.95767 6.86875 5.62632
H 0.6931 5.61953 8.22659
H 0.740187 7.08426 9.40725
H 1.94524 5.77955 9.49609
H 1.99083 7.03289 8.20344
H 0.892534 5.69915 10.8479
H 0.602639 7.0803 12.0789
H 2.0572 5.82929 11.9007
H 2.03317 7.02182 10.7449
H 0.695195 5.72837 13.1821
H 0.507864 7.00029 14.5034
H 1.67809 5.75256 14.5142
H 1.96293 6.92262 13.2627
H 0.546307 5.5985 15.9414
H 0.734188 7.03436 17.0374
H 1.74406 5.64969 17.2379
H 1.94564 7.01279 15.8747
H 0.656845 5.8553 18.3747
H 0.722968 7.0395 19.6637
H 1.96894 5.70264 19.6412
H 2.04044 7.07942 18.4168
H 0.603046 5.93196 20.8806
H 0.505903 6.96554 22.2313
H 1.97232 5.67608 22.1653
H 1.90575 6.93073 20.9989
H 0.585483 8.19172 0.576958
H 0.512483 9.432 1.9572
H 1.97091 8.2725 1.88146
H 1.85523 9.49637 0.666756
H 0.568226 8.13871 3.16032
H 0.620851 9.43714 4.30124
H 1.92767 8.29002 4.32352
H 1.9566 9.50017 3.12284
H 0.741652 8.19888 5.78234
H 0.666445 9.60823 6.92687
H 1.94629 8.33157 6.93403
H 1.85368 9.53231 5.42971
H 0.705263 8.36059 8.2456
H 0.746327 9.49664 9.45166
H 2.10248 8.13714 9.36451
H 2.09903 9.5184 8.1443
H 0.695789 8.34412 10.773
H 0.742786 9.48073 12.1449
H 1.91538 8.16978 11.8982
H 1.90093 9.61307 10.7531
H 0.590022 8.26139 13.317
H 0.747453 9.53029 14.473
H 1.93748 8.11231 14.6164
H 1.99185 9.49011 13.2265
H 0.676847 8.28584 15.7438
H 0.651725 9.4864 17.133
H 1.92933 8.22408 17.0527
H 1.98535 9.37677 15.8648
H 0.650527 8.06711 18.2957
H 0.568152 9.41949 19.6356
H 1.95549 8.12253 19.6283
H 1.95802 9.5573 18.5977
H 0.606693 8.22931 20.9475
H 0.572426 9.3952 22.1591
H 1.91364 8.32524 22.2114
H 1.88171 9.51987 21
H 0.578452 10.6996 0.575368
H 0.623457 12.2245 1.69039
H 1.86686 10.6427 1.81072
H 1.84579 12.0408 0.572818
H 0.675584 10.8148 3.09899
H 0.616368 12.0321 4.40164
H 1.96629 10.9094 4.26187
H 1.84524 12.2223 3.17514
H 0.6401 10.904 5.60139
H 0.62699 12.1103 6.8783
H 1.99354 10.7791 6.8279
H 1.99195 12.0283 5.59449
H 0.877082 10.7044 8.14321
H 0.752725 12.2032 9.51428
H 2.03641 10.9012 9.4986
H 1.97287 11.9359 7.96506
H 0.696456 10.8147 10.8317
H 0.629776 12.0948 11.9645
H 1.93852 10.7556 12.1205
H 1.83512 11.9962 10.6155
H 0.652622 10.7936 13.2751
H 0.619514 12.0204 14.4579
H 1.92798 10.8074 14.6086
H 1.99316 11.9632 13.2832
H 0.600408 10.7705 15.7531
H 0.561826 12.0795 17.1422
H 1.83638 10.8018 17.1421
H 2.02048 12.1411 15.8255
H 0.643377 10.5547 18.315
H 0.579502 11.875 19.6217
H 1.92339 10.8219 19.7619
H 1.68442 12.1208 18.509
H 0.626108 10.6889 20.9384
H 0.526298 12.0065 22.2601
H 1.73709 10.9291 22.2088
H 1.78943 11.9705 20.969
H 0.573372 13.3316 0.683322
H 0.726942 14.6211 1.92244
H 1.94728 13.2034 1.82019
H 1.83701 14.6329 0.589842
H 0.620812 13.3185 3.22109
H 0.603891 14.6399 4.39064
H 1.94108 13.4081 4.39392
H 2.02392 14.5318 3.03868
H 0.646487 13.3611 5.55011
H 0.711643 14.5883 6.99085
H 1.91085 13.3081 6.91271
H 1.99029 14.5444 5.64633
H 0.714139 13.3317 8.22419
H 0.620429 14.5281 9.41959
H 1.8902 13.4948 9.52079
H 1.81284 14.7146 8.01647
H 0.550877 13.2697 10.7156
H 0.677408 14.6441 11.9368
H 1.86377 13.242 11.9109
H 1.87897 14.535 10.7699
H 0.715155 13.3367 13.3128
H 0.596748 14.6874 14.589
H 1.85586 13.3689 14.5299
H 1.9856 14.6009 13.2738
H 0.748871 13.2272 15.8781
H 0.57011 14.5495 17.1331
H 1.83337 13.2495 17.2182
H 1.76439 14.5212 15.9715
H 0.575916 13.3322 18.4341
H 0.492964 14.4481 19.6424
H 1.76439 13.3485 19.7426
H 1.84755 14.5152 18.3039
H 0.552147 13.3138 20.9546
H 0.533193 14.5162 22.088
H 1.85016 13.4749 22.2211
H 1.92062 14.5602 20.8343
H 0.626669 15.859 0.55785
H 0.507392 17.1607 1.7862
H 1.92591 15.882 1.7808
H 1.79586 17.0017 0.430618
H 0.512999 15.9711 3.18382
H 0.769461 17.1383 4.40897
H 1.93442 15.9304 4.20283
H 1.92003 17.1533 3.01923
H 0.799215 15.8949 5.51705
H 0.788235 17.0462 6.96016
H 1.91644 16.0236 6.9329
H 1.98372 17.2271 5.44594
H 0.720623 15.8457 8.13951
H 0.631607 17.1193 9.36258
H 1.90845 15.774 9.43874
H 1.91659 17.0919 8.13784
H 0.681968 15.71 10.6692
H 0.702899 17.0699 12.1359
H 1.83701 15.818 12.0022
H 1.96257 17.0352 10.8791
H 0.550903 15.8055 13.2504
H 0.564672 17.0176 14.6347
H 1.72152 15.8434 14.5864
H 1.81801 17.1282 13.2525
H 0.666685 15.8949 15.801
H 0.49984 17.131 17.1914
H 1.92675 15.7438 17.0833
H 1.84419 17.0199 15.8923
H 0.545575 15.9077 18.2857
H 0.672924 17.1625 19.6729
H 1.80003 15.7407 19.5786
H 1.96832 17.0954 18.4272
H 0.625337 15.77 20.8909
H 0.627762 17.2098 21.9986
H 1.93373 15.7 22.1978
H 1.87707 17.0584 20.8344
H 0.520099 18.472 0.602246
H 0.617341 19.6102 1.76755
H 1.83813 18.3261 1.78155
H 1.9429 19.6778 0.455295
H 0.61905 18.3034 3.1327
H 0.591361 19.5813 4.43631
H 1.92301 18.4793 4.3135
H 1.85503 19.7511 3.03728
H 0.734093 18.3755 5.79954
H 0.692795 19.7424 6.9878
H 2.00486 18.2616 6.91454
H 1.90073 19.6412 5.63285
H 0.639106 18.3574 8.28233
H 0.507991 19.7292 9.3956
H 1.92354 18.3883 9.56111
H 1.87379 19.6354 8.25749
H 0.634756 18.21 10.7903
H 0.665624 19.6911 12.0721
H 1.96628 18.538 12.0227
H 1.93829 19.6113 10.7184
H 0.597919 18.4476 13.3451
H 0.616118 19.6625 14.671
H 1.97527 18.4143 14.5143
H 1.96195 19.7313 13.2862
H 0.50654 18.2602 15.8107
H 0.598073 19.5504 17.1234
H 1.96983 18.4353 17.1243
H 1.69575 19.7078 15.868
H 0.733911 18.387 18.4053
H 0.730799 19.671 19.6003
H 1.80225 18.383 19.7666
H 1.71696 19.6262 18.4233
H 0.53603 18.352 20.9746
H 0.532018 19.5858 22.1494
H 1.91352 18.3395 22.191
H 1.82466 19.714 20.8995
H 0.435301 20.9387 0.702191
H 0.630891 22.2048 1.83949
H 1.79948 20.9158 1.83473
H 1.77745 22.2591 0.449741
H 0.622821 20.9699 3.07102
H 0.636752 22.1655 4.42432
H 1.78096 20.8712 4.39257
H 1.86172 22.3159 3.15267
H 0.55194 20.9446 5.63898
H 0.454284 22.2086 6.99824
H 1.8947 20.9984 7.02338
H 1.75224 22.2876 5.72009
H 0.686904 20.9255 8.34541
H 0.755956 22.1245 9.50753
H 1.90021 20.9133 9.39624
H 2.01659 22.1796 8.1425
H 0.65393 20.8507 10.7017
H 0.649946 22.1917 12.0937
H 1.87876 20.9398 12.104
H 1.95689 21.9958 10.8043
H 0.666085 21.0506 13.4125
H 0.681399 22.2548 14.45
H 2.06507 20.9073 14.6083
H 2.03258 22.1079 13.2907
H 0.618166 21.0686 15.7632
H 0.610903 22.2938 16.983
H 1.7297 20.9793 16.9834
H 2.01186 22.1926 15.7426
H 0.642262 20.8627 18.2892
H 0.538994 22.27 19.7439
H 1.77526 21.177 19.7032
H 1.8743 22.2326 18.4376
H 0.533475 20.943 20.9035
H 0.489546 22.2254 22.1227
H 1.89326 20.8957 22.0582
H 1.88364 22.1704 20.9763
H 3.31681 0.466413 0.540965
H 3.2063 1.812 1.91952
H 4.50754 0.575935 1.95511
H 4.49957 1.93689 0.691059
H 3.19772 0.62219 3.05591
H 3.08597 1.82527 4.37685
H 4.40892 0.627878 4.44311
H 4.44853 1.95659 3.24894
H 3.19973 0.623754 5.67628
H 3.06068 1.91578 6.85262
H 4.4879 0.59266 6.89855
H 4.49472 1.83638 5.63646
H 3.15877 0.734496 8.26264
H 3.12048 1.85387 9.46763
H 4.48451 0.727181 9.4512
H 4.40149 1.95752 8.11708
H 3.20901 0.600784 10.8845
H 3.09853 1.78773 11.991
H 4.50809 0.638856 11.9481
H 4.41237 2.11994 10.6998
H 3.26798 0.668595 13.3098
H 3.0862 1.82249 14.6368
H 4.39934 0.60552 14.6633
H 4.35477 1.87998 13.3324
H 3.26139 0.704208 15.8205
H 3.244 1.90584 17.3286
H 4.66313 0.695884 17.1881
H 4.39141 2.03481 15.8922
H 3.23018 0.493029 18.4285
H 3.03907 1.80631 19.6673
H 4.33872 0.650242 19.6885
H 4.44922 1.91689 18.4283
H 3.16906 0.604213 20.9764
H 3.11273 1.86985 22.1174
H 4.41965 0.727718 22.175
H 4.55518 2.05717 20.9582
H 2.97112 3.19655 0.584393
H 3.22896 4.43034 1.88204
H 4.29928 3.09588 1.94468
H 4.38024 4.39409 0.680004
H 3.02687 3.09559 3.16913
H 3.20289 4.42687 4.2876
H 4.4888 3.17457 4.54532
H 4.39582 4.39027 3.10946
H 3.19966 3.06345 5.60156
H 3.08187 4.38925 6.97674
H 4.46501 3.15075 6.79414
H 4.48952 4.49636 5.6278
H 3.20415 3.24771 8.23884
H 3.10093 4.55034 9.46108
H 4.51318 3.18846 9.4345
H 4.28925 4.52269 8.27903
H 3.13915 3.1092 10.7316
H 3.15466 4.37402 12.1111
H 4.49637 3.29834 11.8826
H 4.37755 4.54652 10.7933
H 3.24168 3.02707 13.266
H 3.13698 4.65753 14.6738
H 4.41766 3.32072 14.5882
H 4.41772 4.38879 13.2013
H 3.08798 3.3424 15.8821
H 3.10253 4.51122 17.0982
H 4.32924 3.28878 16.9844
H 4.4519 4.61064 15.7269
H 2.99254 3.28282 18.2834
H 3.31333 4.46761 19.6217
H 4.33256 3.19088 19.6742
H 4.38516 4.34846 18.2514
H 3.07924 3.12755 20.9861
H 3.18178 4.48398 22.072
H 4.41573 3.26241 22.1426
H 4.52961 4.39509 20.9254
H 3.20639 5.86855 0.596837
H 3.14044 7.08664 1.91139
H 4.40859 5.69329 1.97694
H 4.50445 6.89391 0.743457
H 3.24961 5.72793 3.14927
H 3.1936 6.90461 4.5602
H 4.6315 5.69248 4.3778
H 4.43929 7.08459 3.24472
H 3.20416 5.70298 5.74891
H 3.2828 6.96852 6.92827
H 4.55106 5.54451 6.78404
H 4.49348 6.88721 5.69282
H 3.17888 5.59879 8.24824
H 3.19692 6.79088 9.48642
H 4.52839 5.74359 9.63807
H 4.31938 7.02667 8.22555
H 3.26711 5.68459 10.7874
H 3.20451 7.05794 11.9973
H 4.37576 5.76257 11.9721
H 4.5972 6.98872 10.7681
H 3.15703 5.67822 13.3515
H 3.09799 6.96744 14.6229
H 4.41072 5.80134 14.4461
H 4.43832 7.06066 13.0974
H 3.11056 5.84694 15.898
H 3.2222 6.99159 17.146
H 4.43145 5.74274 17.1385
H 4.56027 6.92469 15.9333
H 3.19134 5.70454 18.2672
H 3.20164 6.81933 19.5704
H 4.5913 5.78856 19.8312
H 4.47228 6.92409 18.3777
H 3.21713 5.71551 21.0307
H 3.06968 6.98526 22.1034
H 4.63882 5.80928 22.2386
H 4.38488 6.98598 20.9491
H 3.27463 8.35736 0.565895
H 3.28835 9.5048 1.89812
H 4.58194 8.22159 1.88751
H 4.4644 9.53452 0.610649
H 3.21557 8.31801 3.13472
H 3.289 9.39523 4.38049
H 4.53862 8.25328 4.41219
H 4.42062 9.62086 3.0325
H 3.21645 8.09244 5.77743
H 3.1471 9.49724 6.89713
H 4.48738 8.22003 7.02083
H 4.33543 9.51139 5.54762
H 3.25775 8.34017 8.19555
H 3.15597 9.56591 9.37188
H 4.43223 8.33318 9.50383
H 4.47639 9.63177 8.11716
H 3.23438 8.30787 10.6168
H 3.20593 9.60315 11.8607
H 4.38145 8.30263 11.8584
H 4.49106 9.67606 10.6882
H 3.10551 8.21042 13.2249
H 3.22011 9.54579 14.5448
H 4.2588 8.20073 14.5891
H 4.48164 9.36279 13.3712
H 3.18047 8.16957 16.02
H 3.12612 9.48745 17.215
H 4.27787 8.15132 17.0833
H 4.4468 9.59873 15.9064
H 3.10758 8.12304 18.4644
H 3.06552 9.5948 19.6059
H 4.3488 8.23833 19.6323
H 4.3512 9.47111 18.1781
H 3.04276 8.24928 20.8998
H 3.02396 9.57278 22.1777
H 4.26589 8.49855 22.2502
H 4.37878 9.67078 20.8474
H 3.15779 10.7018 0.657141
H 3.12501 11.9244 1.87126
H 4.58521 10.8774 1.83183
H 4.40946 11.9949 0.656656
H 3.15396 10.8199 3.11139
H 3.26031 12.0971 4.53565
H 4.56329 10.9482 4.44459
H 4.30672 12.0158 3.08109
H 3.08556 10.7144 5.61878
H 3.23625 12.0198 6.81732
H 4.61396 10.9563 6.87989
H 4.29492 12.131 5.59888
H 3.33786 10.9225 8.13907
H 3.20898 11.9646 9.50928
H 4.44967 10.7069 9.4465
H 4.43467 12.2521 8.17182
H 3.21274 10.795 10.734
H 3.02639 12.0672 11.8669
H 4.46045 10.8008 12.0524
H 4.55638 12.0984 10.6931
H 3.2235 10.7879 13.1641
H 3.04278 11.989 14.6386
H 4.37799 10.8116 14.5852
H 4.38743 12.1514 13.2604
H 3.06511 10.6623 15.9066
H 3.15921 12.1713 17.0715
H 4.39784 10.8676 17.1419
H 4.29874 11.9123 15.7777
H 2.96751 10.8021 18.4443
H 3.22452 12.0172 19.7641
H 4.58056 10.8269 19.4997
H 4.18478 12.162 18.3497
H 3.15283 10.7398 20.9453
H 3.11997 11.8591 22.3315
H 4.48524 10.767 22.249
H 4.28319 12.1203 21.0678
H 3.07292 13.2967 0.605817
H 3.15755 14.665 1.72941
H 4.41066 13.2767 1.80837
H 4.51653 14.6334 0.641111
H 3.297 13.3137 3.06553
H 3.16224 14.6582 4.29403
H 4.54875 13.3193 4.42373
H 4.53131 14.4512 3.16035
H 3.13508 13.3248 5.70841
H 3.30329 14.6108 6.97977
H 4.46286 13.3554 6.96537
H 4.40884 14.5705 5.60444
H 3.07445 13.2695 8.14808
H 3.04484 14.5173 9.61551
H 4.29217 13.3036 9.55255
H 4.41052 14.504 8.15568
H 3.02036 13.3938 10.8754
H 3.2632 14.5692 12.0471
H 4.38281 13.2331 12.0171
H 4.44596 14.636 10.6964
H 3.07106 13.2852 13.2621
H 3.14529 14.6784 14.4814
H 4.39318 13.3533 14.5962
H 4.39639 14.6139 13.1939
H 3.1508 13.4616 15.864
H 3.19563 14.67 17.2338
H 4.37251 13.3867 17.1757
H 4.41373 14.5878 15.8067
H 3.08281 13.3452 18.3364
H 3.15418 14.4876 19.615
H 4.422 13.2045 19.7268
H 4.17518 14.6252 18.3568
H 3.07816 13.2294 20.9926
H 3.19289 14.5218 22.1302
H 4.44193 13.12 22.2808
H 4.41703 14.4933 20.9467
H 3.10706 15.944 0.577544
H 3.30111 17.0928 1.77494
H 4.39778 15.7779 1.90035
H 4.31575 17.1445 0.555464
H 3.23199 15.8334 2.90185
H 3.28325 17.1118 4.33428
H 4.50087 15.9285 4.34708
H 4.45409 17.2088 3.19346
H 3.04653 15.8346 5.63716
H 3.25719 17.14 6.86695
H 4.41635 15.9575 6.78723
H 4.37487 17.1938 5.62674
H 3.27145 15.8019 8.27212
H 3.11509 16.9971 9.56864
H 4.39651 15.8878 9.40148
H 4.45931 17.0428 8.2438
H 3.32613 15.7959 10.8619
H 3.10204 17.0688 12.0166
H 4.55026 15.9044 12.0979
H 4.49531 17.1219 10.6662
H 3.09022 15.834 13.1786
H 3.13567 17.2989 14.6732
H 4.36201 15.8693 14.5404
H 4.34713 17.02 13.2701
H 3.16475 15.7563 15.8686
H 3.03581 17.1604 17.0994
H 4.47769 15.7829 17.2693
H 4.42335 17.0949 15.9785
H 3.16167 15.8721 18.3641
H 3.25153 17.1757 19.6693
H 4.40219 15.8185 19.6719
H 4.23349 17.0865 18.367
H 3.21367 15.8115 20.775
H 3.00676 16.9492 21.9351
H 4.40788 15.786 22.124
H 4.33951 17.1874 20.853
H 3.0751 18.3317 0.54174
H 3.0764 19.7081 1.71193
H 4.46028 18.4304 1.83887
H 4.36135 19.7291 0.648915
H 3.20691 18.3206 3.0892
H 3.11278 19.763 4.26294
H 4.36223 18.5385 4.41106
H 4.44413 19.6529 3.14368
H 3.16406 18.5115 5.55685
H 3.13175 19.6563 6.86817
H 4.42913 18.4471 6.95269
H 4.4449 19.7127 5.65392
H 3.26117 18.4244 8.32243
H 3.24615 19.8311 9.74725
H 4.38636 18.4216 9.55538
H 4.3905 19.6944 8.28059
H 3.08549 18.3083 10.9612
H 3.16093 19.7374 11.9163
H 4.50528 18.3656 12.0856
H 4.54808 19.62 10.7477
H 3.28179 18.2636 13.3573
H 3.12905 19.5548 14.55
H 4.44248 18.485 14.7048
H 4.50801 19.722 13.3022
H 3.12482 18.4692 15.8912
H 3.04565 19.685 17.1761
H 4.41367 18.4086 17.1532
H 4.40023 19.6854 15.904
H 3.15886 18.4258 18.3235
H 3.13639 19.7361 19.6345
H 4.4585 18.4287 19.5188
H 4.40945 19.7847 18.2825
H 3.11625 18.4461 21.0302
H 3.19676 19.7488 22.1222
H 4.42723 18.3748 22.1183
H 4.30118 19.7022 20.9491
H 3.12981 20.9409 0.618907
H 3.29489 22.1939 1.93355
H 4.61714 20.8459 1.79832
H 4.51728 22.2401 0.739917
H 3.17269 21.0125 3.06673
H 3.12017 22.2598 4.4045
H 4.39612 20.9501 4.3448
H 4.50038 22.2823 3.11755
H 3.0086 20.9992 5.6547
H 3.32116 22.1585 6.87691
H 4.49633 20.9264 6.8861
H 4.42949 22.2218 5.76042
H 3.18188 20.9826 8.10113
H 3.19379 22.1775 9.52781
H 4.3009 20.9784 9.5718
H 4.5455 22.1086 8.14726
H 3.26094 20.8239 10.9783
H 3.29125 22.2157 12.0317
H 4.40365 20.9265 11.9999
H 4.38125 22.2526 10.6852
H 3.28725 20.9014 13.2905
H 3.09569 22.2314 14.5035
H 4.45821 20.9143 14.5141
H 4.50513 22.4149 13.3986
H 3.26299 20.7558 15.9808
H 3.12919 22.172 17.341
H 4.50667 20.8562 17.1407
H 4.28151 22.2743 16.0685
H 3.06201 20.986 18.3561
H 3.27374 22.3474 19.5836
H 4.47653 21.0354 19.608
H 4.49344 22.1427 18.382
H 3.19307 20.8661 20.851
H 3.18184 22.1114 22.1753
H 4.53888 21.0377 22.2777
H 4.40022 22.2601 20.9448
H 5.58988 0.614331 0.485006
H 5.62677 1.77268 1.8148
H 6.89882 0.588222 1.95223
H 7.07257 1.8103 0.597795
H 5.73973 0.61699 3.27127
H 5.6783 1.95472 4.48262
H 6.91733 0.581931 4.43003
H 6.94513 1.9465 3.0685
H 5.76459 0.660832 5.62423
H 5.70205 1.93329 6.90053
H 7.01683 0.757098 6.94746
H 6.98638 1.96763 5.6261
H 5.71496 0.72142 8.25727
H 5.80309 1.75585 9.58853
H 7.11102 0.55866 9.48515
H 7.04683 1.74665 8.20871
H 5.73481 0.640053 10.7688
H 5.71492 1.99434 12.0426
H 6.75272 0.666081 12.0614
H 7.00721 1.80668 10.7597
H 5.73361 0.680165 13.3966
H 5.56343 1.84573 14.5463
H 6.83086 0.495994 14.6279
H 6.87747 1.882 13.332
H 5.62037 0.793653 15.8334
H 5.77805 2.04775 17.157
H 6.85539 0.557511 17.1351
H 6.93137 1.83507 15.9891
H 5.71173 0.715336 18.4843
H 5.87044 2.08605 19.7493
H 6.99594 0.555914 19.7411
H 7.06797 1.86083 18.3443
H 5.73096 0.725931 21.0554
H 5.71591 1.89469 22.3165
H 7.01351 0.487337 22.1055
H 6.9837 1.87265 20.8556
H 5.79138 3.19435 0.574952
H 5.71412 4.40885 1.97623
H 7.03752 3.09826 1.89141
H 7.06041 4.34625 0.480426
H 5.72466 3.14423 3.07329
H 5.70763 4.45331 4.26718
H 6.92354 3.07746 4.30285
H 6.9419 4.4866 3.22558
H 5.85606 3.24139 5.79585
H 5.63031 4.42054 6.91803
H 7.03284 3.20567 6.99478
H 7.00165 4.6124 5.70803
H 5.72734 3.10668 8.26189
H 5.6733 4.34479 9.57028
H 6.83345 3.1924 9.41433
H 7.01245 4.4575 8.12219
H 5.72306 3.19329 10.7387
H 5.69961 4.56464 12.1082
H 6.77539 3.13925 11.9924
H 7.10919 4.3871 10.7381
H 5.6362 3.21048 13.2327
H 5.67904 4.45048 14.6595
H 6.98272 2.99007 14.4609
H 6.97573 4.35973 13.3581
H 5.70615 3.05313 15.8872
H 5.69301 4.43681 16.9728
H 7.15545 3.25435 16.9566
H 6.82949 4.4871 15.7486
H 5.76068 3.10517 18.3964
H 5.77817 4.42561 19.5687
H 7.09568 3.2056 19.5478
H 6.92985 4.48775 18.4343
H 5.73132 3.22012 20.94
H 5.76869 4.43314 22.2343
H 6.89154 3.00856 22.1138
H 6.95896 4.45991 20.9548
H 5.71589 5.60548 0.613879
H 5.79609 6.91099 1.86473
H 7.08681 5.64023 1.94688
H 6.98495 6.91197 0.582758
H 5.61784 5.71479 3.26284
H 5.81655 6.99034 4.52683
H 7.00582 5.85234 4.39525
H 7.04718 6.98934 3.2563
H 5.77582 5.68724 5.55163
H 5.79352 7.00611 6.95328
H 6.91833 5.66003 6.88811
H 6.98458 6.99147 5.70733
H 5.68115 5.76105 8.07484
H 5.68772 6.86336 9.53524
H 6.9384 5.57853 9.46604
H 7.00908 6.91526 8.29371
H 5.75843 5.58518 10.8531
H 5.72842 6.94414 11.9739
H 6.91914 5.73207 12.0676
H 6.92023 7.06406 10.7665
H 5.66202 5.63585 13.3414
H 5.47207 6.91566 14.5337
H 6.78396 5.64075 14.47
H 6.82367 6.96213 13.3555
H 5.77653 5.73253 15.9198
H 5.68726 7.01296 17.0182
H 7.08528 5.71565 17.1391
H 6.88366 7.08195 15.7942
H 5.71405 5.67795 18.3877
H 5.68751 6.92296 19.667
H 6.95003 5.6227 19.6611
H 6.93894 6.8152 18.3579
H 5.89596 5.77969 20.9003
H 5.56284 7.13067 22.1655
H 6.97846 5.76707 22.2239
H 7.06814 7.01963 20.9106
H 5.66116 8.21594 0.583815
H 5.66864 9.42606 2.01943
H 6.9828 8.2671 1.87686
H 6.93075 9.5202 0.662447
H 5.79732 8.35513 3.29094
H 5.69336 9.48578 4.5702
H 6.96209 8.32367 4.51229
H 7.11402 9.67395 3.33213
H 5.77617 8.25607 5.70042
H 5.87401 9.58191 7.10653
H 6.97909 8.29527 7.06557
H 7.07273 9.40332 5.80561
H 5.79706 8.11177 8.29832
H 5.72939 9.49309 9.40862
H 7.10089 8.25675 9.48921
H 7.06173 9.53835 8.24541
H 5.77047 8.26751 10.5972
H 5.66381 9.61714 11.9838
H 6.70447 8.34243 12.034
H 7.0736 9.41857 10.7694
H 5.7786 8.21378 13.3176
H 5.60526 9.58696 14.5239
H 6.91859 8.29024 14.5285
H 6.98435 9.55754 13.434
H 5.60085 8.35638 15.863
H 5.75212 9.5618 17.1538
H 6.93074 8.23134 17.1132
H 6.91809 9.45248 15.7862
H 5.64882 8.20434 18.2629
H 5.72898 9.60786 19.5422
H 7.09463 8.3674 19.7049
H 6.97323 9.5841 18.3493
H 5.74172 8.22964 20.9283
H 5.78591 9.50161 22.0553
H 6.90103 8.24812 22.2424
H 6.99195 9.56932 20.8196
H 5.70143 10.7647 0.566319
H 5.77347 12.0567 1.80582
H 7.0171 10.6884 1.89224
H 6.98453 12.1218 0.702882
H 5.73255 10.8206 3.24894
H 5.76399 12.053 4.34867
H 7.15286 10.8558 4.46181
H 6.97307 12.0282 3.06825
H 5.72077 10.7127 5.74658
H 5.88404 12.0601 6.97457
H 7.04067 10.8435 7.0803
H 6.87129 12.054 5.72758
H 5.77418 10.764 8.22517
H 5.87583 12.0465 9.42733
H 7.06453 10.8368 9.49126
H 7.18873 12.0561 8.38366
H 5.83887 10.8087 10.6474
H 5.67262 12.0125 12.0238
H 6.87882 10.7253 12.1126
H 7.04801 12.059 10.7151
H 5.65768 10.8198 13.4759
H 5.51503 11.9896 14.7822
H 6.92055 10.8211 14.6007
H 6.88845 12.1066 13.3228
H 5.66857 10.7927 15.9452
H 5.52872 12.0904 17.086
H 6.93452 10.8209 17.0583
H 6.96939 11.9646 15.7705
H 5.6644 10.676 18.3
H 5.72887 11.9542 19.5585
H 6.91659 10.9212 19.6607
H 6.94959 12.0342 18.3343
H 5.62928 10.8357 21.0195
H 5.67489 12.0307 22.2792
H 6.9638 10.7861 22.2731
H 6.96113 12.085 20.9334
H 5.64557 13.3811 0.749396
H 5.89063 14.5217 1.83198
H 6.98241 13.2238 1.8753
H 7.06008 14.6727 0.452491
H 5.60116 13.282 3.11351
H 5.77932 14.5335 4.32573
H 7.05761 13.2308 4.34691
H 6.93523 14.5796 3.18503
H 5.69431 13.4887 5.68756
H 5.71746 14.5535 6.89409
H 6.9677 13.2845 7.05967
H 6.9084 14.6837 5.58235
H 5.66234 13.4554 8.27422
H 5.66297 14.556 9.4131
H 7.01032 13.4303 9.46442
H 7.07689 14.6531 8.17299
H 5.71704 13.4597 10.6647
H 5.71841 14.6062 12.0217
H 6.9879 13.2926 11.9547
H 7.05511 14.6609 10.7506
H 5.56245 13.3409 13.3149
H 5.91834 14.5056 14.6923
H 6.98697 13.1749 14.54
H 6.9714 14.5447 13.3096
H 5.61732 13.2759 15.8204
H 5.7905 14.703 17.059
H 6.88257 13.2576 17.1561
H 6.98369 14.4865 15.8362
H 5.62554 13.3702 18.2956
H 5.5851 14.5246 19.572
H 6.95055 13.2401 19.7733
H 6.92469 14.5681 18.3831
H 5.5698 13.2864 20.8274
H 5.67469 14.4599 22.2323
H 6.93098 13.116 22.1284
H 6.96896 14.554 21.0904
H 5.60273 15.9074 0.613195
H 5.65445 17.1555 1.75292
H 6.82351 15.9675 1.92825
H 6.9154 17.1916 0.526457
H 5.76046 15.7767 3.14864
H 5.72278 17.302 4.49746
H 7.0109 15.9159 4.34155
H 6.90434 17.169 3.16657
H 5.64585 15.8849 5.60796
H 5.82459 17.1132 7.0036
H 6.97695 15.8221 6.8349
H 7.09958 17.0351 5.63875
H 5.7597 15.7171 8.03068
H 5.73064 17.153 9.48744
H 6.90816 15.8037 9.45056
H 6.89321 17.1277 8.25869
H 5.69853 15.7805 10.7861
H 5.76011 17.213 12.0245
H 6.9962 15.9839 12.0394
H 7.05609 17.1902 10.7489
H 5.66044 15.8983 13.422
H 5.5416 17.1566 14.7015
H 7.09871 15.9485 14.7201
H 6.91237 17.148 13.4693
H 5.59314 15.8255 15.9134
H 5.74266 17.0859 17.0981
H 6.87806 15.9166 17.2485
H 6.986 17.1062 15.7991
H 5.76698 15.9311 18.5666
H 5.56508 17.0494 19.6724
H 6.95663 15.7894 19.7359
H 7.03682 17.2609 18.5282
H 5.67778 15.8217 20.796
H 5.73192 17.1595 22.0755
H 6.97866 15.8517 22.1304
H 7.02886 17.1742 21.0108
H 5.60595 18.3789 0.77466
H 5.75576 19.6202 1.70492
H 7.00502 18.4763 1.85777
H 7.04153 19.7243 0.69175
H 5.70578 18.2965 3.20776
H 5.73847 19.6868 4.37792
H 6.99862 18.4162 4.42977
H 7.11686 19.5553 3.19598
H 5.78508 18.472 5.73867
H 5.69995 19.5855 7.14399
H 6.98869 18.4916 7.01724
H 6.98565 19.5605 5.599
H 5.60168 18.4082 8.14908
H 5.78973 19.5923 9.49441
H 6.93858 18.407 9.52665
H 6.92501 19.6557 8.20969
H 5.66357 18.4345 10.6236
H 5.78216 19.7172 12.0581
H 6.86936 18.3377 12.0389
H 7.03622 19.6972 10.907
H 5.6551 18.4258 13.483
H 5.66268 19.5137 14.6945
H 6.97537 18.3253 14.7991
H 6.94672 19.7136 13.4894
H 5.48452 18.487 16.0849
H 5.78986 19.6445 17.1358
H 6.91417 18.2548 17.2639
H 6.98181 19.6928 15.8459
H 5.70259 18.4805 18.4028
H 5.6069 19.7876 19.5676
H 6.87032 18.3057 19.8178
H 6.94593 19.5234 18.3902
H 5.49789 18.5816 20.8793
H 5.78179 19.7413 22.1807
H 6.99109 18.4187 21.9488
H 6.9602 19.6719 20.9703
H 5.73609 21.0699 0.725463
H 5.82706 22.1738 1.96947
H 6.82665 20.7667 1.9534
H 7.11404 22.1843 0.606549
H 5.71214 21.0092 3.10723
H 5.72448 22.1339 4.43114
H 6.99695 20.9568 4.28055
H 7.00407 22.2771 3.15847
H 5.71196 20.8503 5.59273
H 5.86033 22.2057 6.99759
H 7.04228 20.9379 6.92964
H 6.88 22.0545 5.65752
H 5.71773 20.8574 8.14327
H 5.73198 22.2581 9.50761
H 7.01066 20.8809 9.57372
H 6.97069 22.0897 8.12546
H 5.60573 20.841 10.6806
H 5.61759 22.1341 12.1139
H 6.89192 20.9016 12.0321
H 7.00929 22.3109 10.8973
H 5.72847 20.9296 13.3854
H 5.54764 22.11 14.7623
H 7.02676 20.8247 14.5635
H 6.76206 22.1693 13.3238
H 5.60582 20.8887 16.0178
H 5.8198 22.2421 17.2656
H 6.94497 20.8423 17.1386
H 7.00895 22.1278 15.9742
H 5.85553 20.9396 18.5531
H 5.67022 22.2531 19.5717
H 6.90656 20.8498 19.7485
H 7.04756 22.1302 18.4791
H 5.63423 20.9972 20.8855
H 5.78797 22.0631 22.2544
H 7.00081 20.7881 22.2281
H 6.99553 22.1045 20.9188
H 8.14825 0.636039 0.582345
H 8.16267 1.77447 1.93794
H 9.51709 0.607254 1.77183
H 9.41058 1.96778 0.816201
H 8.24994 0.573083 3.11878
H 8.25185 1.74272 4.52371
H 9.5808 0.627313 4.37382
H 9.41972 1.93449 3.19666
H 8.1908 0.779764 5.85359
H 8.23227 2.01122 6.97554
H 9.51176 0.678331 6.9881
H 9.47275 2.04305 5.68856
H 8.15669 0.635856 8.19436
H 8.07327 1.86468 9.41785
H 9.41337 0.559579 9.54064
H 9.4545 1.86801 8.2508
H 8.25699 0.642938 10.7774
H 8.22656 1.92396 12.0503
H 9.48607 0.687157 12.2136
H 9.50556 1.8786 10.7964
H 8.13185 0.651564 13.3566
H 8.23082 1.84539 14.6159
H 9.50607 0.485353 14.6991
H 9.53428 1.79476 13.3155
H 8.11159 0.610022 15.7889
H 8.2063 1.98309 17.0205
H 9.47988 0.818544 17.1541
H 9.61173 1.73606 15.7843
H 8.18126 0.732853 18.3951
H 8.43301 1.94196 19.58
H 9.50356 0.583201 19.6887
H 9.59799 1.93841 18.3821
H 8.21275 0.752914 20.885
H 8.30586 1.8459 22.2972
H 9.53578 0.572309 22.2245
H 9.59349 1.98959 21.1548
H 8.48293 3.12595 0.622926
H 8.16729 4.35373 1.81183
H 9.6499 3.22924 1.93446
H 9.50599 4.45037 0.662678
H 8.1981 3.28835 3.08027
H 8.19588 4.39782 4.48084
H 9.61055 3.13157 4.24876
H 9.46071 4.38041 3.11367
H 8.27394 3.12529 5.66417
H 8.17921 4.40874 6.9262
H 9.62511 3.21193 7.05366
H 9.46465 4.50559 5.78547
H 8.31064 3.2741 8.29513
H 8.2566 4.41039 9.56504
H 9.51643 3.09321 9.53425
H 9.58864 4.42091 8.20274
H 8.38386 3.01657 10.7284
H 8.20002 4.34748 12.1256
H 9.48981 3.1368 11.9092
H 9.39829 4.37315 10.8432
H 8.19742 3.15826 13.272
H 8.17597 4.5026 14.5757
H 9.54583 2.97302 14.5652
H 9.42552 4.37038 13.3794
H 8.08948 3.09564 15.6903
H 8.35187 4.39855 16.9663
H 9.38858 3.10185 16.9858
H 9.45454 4.41478 15.7003
H 8.29398 3.23056 18.3267
H 8.25991 4.45265 19.7831
H 9.51654 3.21071 19.5512
H 9.52722 4.41535 18.3429
H 8.30467 3.04975 21.0255
H 8.20516 4.44457 22.0654
H 9.51741 3.24599 22.156
H 9.65281 4.3915 21.0602
H 8.30889 5.67753 0.749642
H 8.0659 6.86706 1.99185
H 9.54349 5.65724 1.94623
H 9.44255 6.97721 0.658712
H 8.25285 5.81883 3.2838
H 8.31851 7.09661 4.34462
H 9.435 5.55564 4.47544
H 9.55327 6.98991 3.13602
H 8.28937 5.76472 5.65668
H 8.34429 6.93025 6.94058
H 9.46274 5.61919 6.95165
H 9.54538 6.91837 5.64192
H 8.27124 5.63615 8.34401
H 8.26394 6.85515 9.48594
H 9.58352 5.62899 9.58936
H 9.55205 6.94683 8.14404
H 8.17839 5.744 10.988
H 8.06488 7.08415 12.0778
H 9.38557 5.87342 12.1288
H 9.44846 6.93616 10.8266
H 8.14367 5.74584 13.1343
H 8.25773 6.99154 14.6546
H 9.3842 5.73352 14.4329
H 9.49661 6.96373 13.4149
H 8.08492 5.79034 15.6539
H 8.19299 6.85038 17.1582
H 9.37663 5.6744 16.9721
H 9.42243 6.97996 15.8585
H 8.18524 5.59154 18.3572
H 8.1853 7.02976 19.4927
H 9.5336 5.78814 19.8287
H 9.59286 6.91627 18.4171
H 8.26095 5.80979 20.8407
H 8.29066 6.99973 22.2399
H 9.40958 5.70589 22.0561
H 9.56696 7.12289 20.8779
H 8.20995 8.25756 0.70365
H 8.23772 9.48222 2.02686
H 9.57781 8.20928 2.02215
H 9.39426 9.47939 0.722975
H 8.29246 8.13225 3.09651
H 8.16425 9.44325 4.4814
H 9.50721 8.19321 4.39658
H 9.5424 9.42383 3.11859
H 8.31467 8.33045 5.75013
H 8.40665 9.45099 7.1041
H 9.50589 8.22047 6.97259
H 9.40372 9.54049 5.65717
H 8.2788 8.17635 8.14028
H 8.25797 9.54886 9.63928
H 9.59657 8.1825 9.62294
H 9.49287 9.45693 8.38073
H 8.23946 8.22732 10.7769
H 8.33318 9.57354 12.1537
H 9.40932 8.18072 12.0509
H 9.48774 9.58935 10.7783
H 8.10085 8.19317 13.3679
H 8.07954 9.4368 14.7097
H 9.58471 8.29101 14.5818
H 9.48164 9.5151 13.3376
H 8.24673 8.10936 15.8195
H 8.13053 9.4263 17.0437
H 9.36365 8.2121 17.1322
H 9.47849 9.57049 15.813
H 8.11734 8.18858 18.3185
H 8.19547 9.53903 19.6267
H 9.42417 8.29762 19.5251
H 9.3857 9.43158 18.3213
H 8.29644 8.43187 20.8732
H 8.25358 9.53727 22.0283
H 9.50878 8.18238 22.2812
H 9.40837 9.64649 20.8702
H 8.23852 10.8585 0.673425
H 8.29163 11.9766 1.9726
H 9.55168 10.6868 2.07552
H 9.52847 11.9756 0.647974
H 8.19359 10.8597 3.31508
H 8.56017 11.9587 4.61357
H 9.60776 10.7162 4.3999
H 9.47561 12.1296 3.16025
H 8.28082 10.7305 5.67975
H 8.26193 12.0319 6.7921
H 9.57592 10.7502 7.01054
H 9.57891 12.1582 5.58173
H 8.38132 10.777 8.24001
H 8.37908 12.196 9.55481
H 9.54672 10.8003 9.5773
H 9.55186 12.0239 8.31123
H 8.0634 10.8256 10.8424
H 8.22346 12.1056 12.1327
H 9.46524 10.7751 12.1259
H 9.52215 12.0915 10.8684
H 8.19322 10.7868 13.4421
H 8.38491 12.1201 14.5881
H 9.51703 10.8269 14.587
H 9.39684 12.0016 13.2385
H 8.19479 10.8602 15.8203
H 8.20266 12.0948 17.086
H 9.467 10.654 17.1352
H 9.57321 12.0179 15.9204
H 8.31834 10.8365 18.4807
H 8.36991 12.0304 19.582
H 9.57179 10.7069 19.5612
H 9.47855 11.9918 18.3212
H 8.26309 10.7557 20.8489
H 8.45377 12.0153 22.1387
H 9.60845 10.724 22.1679
H 9.67374 12.0227 20.9012
H 8.14069 13.296 0.630378
H 8.31508 14.6247 1.8616
H 9.46175 13.2777 1.86507
H 9.50823 14.6394 0.628941
H 8.03476 13.4113 3.17968
H 8.22961 14.6444 4.41626
H 9.50206 13.3952 4.52025
H 9.38786 14.7247 3.19403
H 8.08998 13.4138 5.69052
H 8.2573 14.6044 6.98254
H 9.42239 13.3456 6.9953
H 9.5228 14.547 5.57735
H 8.36916 13.3535 8.14773
H 8.39455 14.5234 9.55282
H 9.65718 13.2212 9.53568
H 9.49191 14.6113 8.18679
H 8.2921 13.3755 10.7223
H 8.16985 14.6627 12.0516
H 9.48163 13.319 11.9968
H 9.6284 14.4976 10.6875
H 8.18253 13.2783 13.338
H 8.27109 14.6148 14.5817
H 9.5678 13.3291 14.7202
H 9.45383 14.5668 13.2342
H 8.18297 13.2546 15.8548
H 8.29887 14.6645 17.2129
H 9.44474 13.3646 17.1903
H 9.50315 14.491 15.8941
H 8.04603 13.2719 18.4784
H 8.28796 14.5374 19.7136
H 9.51255 13.283 19.6886
H 9.50676 14.5751 18.4452
H 8.24205 13.3799 20.9599
H 8.31188 14.4788 22.3077
H 9.54271 13.321 22.3319
H 9.57288 14.6344 20.9855
H 8.27274 15.8083 0.60218
H 8.38832 17.1305 2.01324
H 9.53484 15.9357 1.81951
H 9.56252 17.0728 0.614087
H 8.11154 15.9035 3.13677
H 8.28602 17.0784 4.29685
H 9.51521 15.8677 4.29292
H 9.52294 17.1809 3.10891
H 8.31314 15.8406 5.55944
H 8.27011 17.0778 6.9368
H 9.51333 15.8568 6.92466
H 9.57805 17.012 5.64401
H 8.30548 15.9527 8.20606
H 8.2858 17.0973 9.5635
H 9.67422 15.9053 9.52405
H 9.56409 17.1769 8.16902
H 8.24981 15.938 10.6858
H 8.25894 17.2954 11.9013
H 9.50862 15.7565 11.9322
H 9.448 17.1152 10.7325
H 8.20451 15.8737 13.3471
H 8.33677 17.2492 14.5599
H 9.502 15.8765 14.5044
H 9.4797 17.1297 13.3148
H 8.3415 15.778 15.8769
H 8.27568 17.0086 17.0752
H 9.5072 15.8894 17.19
H 9.43854 17.1206 15.795
H 8.04757 15.8188 18.5016
H 8.15274 17.1494 19.5603
H 9.51182 15.819 19.6612
H 9.52871 17.2006 18.3492
H 8.26543 15.7968 20.9552
H 8.21165 16.9301 22.2942
H 9.58011 15.8658 22.0944
H 9.48928 17.0475 20.9617
H 8.25625 18.3786 0.632411
H 8.3409 19.7579 1.82184
H 9.49905 18.3285 1.84098
H 9.56274 19.6871 0.429
H 8.27745 18.3356 3.07233
H 8.24873 19.8373 4.46875
H 9.635 18.5088 4.39187
H 9.3194 19.7186 3.04474
H 8.34201 18.2547 5.6315
H 8.31155 19.6505 6.83872
H 9.56621 18.5294 6.95279
H 9.38519 19.644 5.67232
H 8.30256 18.2309 8.17957
H 8.12377 19.5446 9.54049
H 9.47711 18.4805 9.30986
H 9.48806 19.6448 8.28121
H 8.27481 18.3425 10.6882
H 8.29071 19.5324 12.241
H 9.59008 18.3088 12.0484
H 9.59927 19.6444 10.9846
H 8.25572 18.3251 13.3442
H 8.37079 19.6699 14.6453
H 9.45417 18.4953 14.5233
H 9.44884 19.7663 13.2529
H 8.152 18.33 16.0694
H 8.32599 19.8113 17.1364
H 9.52882 18.3261 17.1646
H 9.54629 19.6229 15.906
H 8.26495 18.4186 18.2259
H 8.24889 19.6323 19.5958
H 9.47843 18.2901 19.589
H 9.49318 19.6757 18.4599
H 8.31868 18.5125 20.8741
H 8.22994 19.4302 22.0946
H 9.59467 18.3544 22.2209
H 9.41276 19.7381 20.8812
H 8.35651 20.8536 0.51721
H 8.16409 22.0588 1.72233
H 9.59641 20.9335 1.81168
H 9.57678 22.1713 0.540834
H 8.21069 20.958 3.19716
H 8.15084 22.1665 4.49536
H 9.49158 20.8861 4.48277
H 9.55091 22.0992 3.17524
H 8.24834 21.0114 5.68226
H 8.24891 22.1886 6.81267
H 9.61916 20.9731 7.03373
H 9.55074 22.2594 5.5376
H 8.19807 20.8926 8.3208
H 8.19074 22.128 9.51679
H 9.52689 21.0287 9.53375
H 9.38976 22.1399 8.1547
H 8.37605 20.8304 10.8158
H 8.08842 22.2007 12.0144
H 9.4356 21.0277 12.0865
H 9.56705 22.2498 10.7623
H 8.08024 21.0061 13.3618
H 8.06898 22.2298 14.4492
H 9.46187 20.9647 14.4753
H 9.58064 22.2458 13.3926
H 8.20796 20.9884 15.9284
H 8.24526 22.2683 17.2387
H 9.53053 20.9315 17.2595
H 9.48893 22.1531 15.9676
H 8.23802 20.9443 18.4113
H 8.22785 22.0867 19.7671
H 9.53945 21.0682 19.6162
H 9.46772 22.2945 18.1786
H 8.15542 20.9088 21.0953
H 8.28953 22.2282 22.1883
H 9.6251 20.9878 22.0854
H 9.4281 22.2059 20.8443
H 10.9662 0.706313 0.573209
H 10.7859 1.90646 1.83014
H 12.2824 0.698403 1.9553
H 12.1379 1.92704 0.648322
H 10.7116 0.725278 3.10692
H 10.7424 1.82698 4.38668
H 11.8535 0.6795 4.43579
H 12.0683 1.92496 3.12507
H 10.773 0.545527 5.83788
H 10.7419 1.89467 6.96269
H 12.1275 0.774024 7.05502
H 11.9952 1.95623 5.8285
H 10.6516 0.603364 8.26701
H 10.6993 1.84467 9.59694
H 11.9324 0.772374 9.60213
H 12.009 1.94785 8.37191
H 10.7783 0.641801 10.8482
H 10.797 1.78694 12.1029
H 12.0513 0.478103 12.1687
H 12.1021 1.79591 10.9292
H 10.8036 0.408624 13.3307
H 10.9459 1.80601 14.4964
H 12.1052 0.612195 14.5588
H 11.9911 1.91885 13.3043
H 10.851 0.642042 15.8641
H 10.7227 1.96834 16.9753
H 12.0213 0.780232 17.0991
H 12.0247 1.92099 15.7517
H 10.8786 0.657495 18.4711
H 10.6717 1.9204 19.6735
H 12.077 0.647893 19.7073
H 12.1525 1.81901 18.3427
H 10.8119 0.663506 20.9888
H 10.7629 1.86601 22.3002
H 12.171 0.664078 22.1178
H 12.005 1.87613 20.9646
H 10.7456 3.08218 0.650386
H 10.8 4.54055 2.06271
H 12.1161 3.14516 1.90979
H 11.8832 4.51078 0.845621
H 10.7277 3.08973 3.17785
H 10.8036 4.38393 4.35463
H 12.1468 3.17186 4.38333
H 12.0442 4.37516 3.15675
H 10.8044 3.19955 5.56301
H 10.9347 4.43671 6.93773
H 12.117 2.98872 6.91411
H 12.043 4.26856 5.7269
H 10.8454 3.26652 8.26076
H 10.8012 4.52483 9.5509
H 11.9709 2.92542 9.54147
H 12.0833 4.44887 8.28564
H 10.7522 3.24709 10.8712
H 10.6588 4.45477 12.1569
H 12.1329 3.12972 12.0142
H 11.968 4.43949 10.9098
H 10.7007 3.08616 13.2935
H 10.7903 4.46827 14.6568
H 11.9917 3.19313 14.6023
H 11.9503 4.53964 13.3067
H 10.7205 3.248 15.7237
H 10.595 4.33202 17.2317
H 12.0154 3.14843 17.0503
H 11.8967 4.53283 15.7925
H 10.8381 3.04877 18.5066
H 10.6704 4.44176 19.6105
H 12.052 3.01979 19.6345
H 11.9599 4.28988 18.3517
H 10.7676 3.2121 21.0257
H 10.8222 4.52654 22.1929
H 12.1157 3.23418 22.236
H 12.0132 4.4835 20.9174
H 10.7407 5.71283 0.54672
H 10.7502 6.89445 1.88064
H 12.0272 5.75765 1.86609
H 11.9594 6.87669 0.685823
H 10.6348 5.75791 3.20555
H 10.8125 6.92493 4.39296
H 11.9513 5.56517 4.45191
H 11.9683 7.03032 3.18369
H 10.8094 5.65247 5.60498
H 10.7192 6.97143 6.94453
H 11.9629 5.75787 6.96964
H 12.0473 6.89869 5.76878
H 10.6744 5.7462 8.1747
H 10.8022 6.9423 9.63173
H 11.9307 5.74757 9.63439
H 12.0954 6.97237 8.19895
H 10.6983 5.69493 10.8736
H 10.7701 7.00281 12.1016
H 11.9703 5.80519 12.105
H 12.165 6.87756 10.9592
H 10.6458 5.78714 13.2715
H 10.7048 7.01065 14.6063
H 12.0211 5.77376 14.4881
H 12.0523 7.13181 13.3821
H 10.6253 5.78153 15.8206
H 10.6631 7.10233 16.9444
H 11.9445 5.70723 17.2264
H 11.8937 6.9753 15.7902
H 10.6867 5.68342 18.5126
H 10.7537 7.00146 19.7578
H 12.0125 5.80567 19.5356
H 12.0064 6.9327 18.2026
H 10.8834 5.75079 20.8202
H 10.861 6.99434 22.0945
H 12.0615 5.65662 22.163
H 12.0386 7.04059 20.8594
H 10.6789 8.30923 0.654855
H 10.8463 9.43565 1.96716
H 11.9648 8.15443 1.79597
H 12.0223 9.45446 0.574739
H 10.7553 8.27818 3.17955
H 10.7239 9.41823 4.50881
H 12.0012 8.14917 4.56247
H 12.1156 9.33581 3.19943
H 10.9164 8.21722 5.6741
H 10.6215 9.45447 7.16495
H 12.1197 8.21448 6.9354
H 12.0013 9.42258 5.8434
H 10.8772 8.05393 8.32435
H 10.7268 9.46898 9.69731
H 12.1342 8.1691 9.51321
H 12.0762 9.4734 8.21447
H 10.7235 8.19206 11.0135
H 10.7403 9.45451 12.0597
H 12.1579 8.36752 11.9979
H 12.0191 9.48778 10.6207
H 10.7039 8.20167 13.4018
H 10.793 9.51259 14.579
H 12.1257 8.1902 14.572
H 12.0342 9.36918 13.392
H 10.6614 8.29443 15.9205
H 10.7708 9.58236 17.0618
H 11.8759 8.20444 17.1984
H 12.092 9.44685 15.8121
H 10.6858 8.20319 18.3342
H 10.8538 9.50233 19.56
H 11.8898 8.25515 19.6657
H 12.0609 9.43011 18.3293
H 10.7876 8.33969 21.0536
H 10.7299 9.452 22.3773
H 12.0033 8.17695 22.2995
H 11.9787 9.57636 21.002
H 10.7537 10.6171 0.710589
H 10.8574 11.9613 1.94699
H 12.1115 10.8249 1.99339
H 11.9597 11.9676 0.607965
H 10.832 10.7092 3.16413
H 10.7986 12.0449 4.32263
H 11.8968 10.7012 4.63344
H 12.0925 12.1811 3.18607
H 10.6603 10.8558 5.64068
H 10.7179 12.0846 6.98391
H 11.9353 10.721 6.85279
H 11.9649 12.1203 5.78273
H 10.8277 10.7944 8.30722
H 10.842 12.0282 9.68463
H 11.9402 10.7988 9.60062
H 12.0453 12.0571 8.13741
H 10.8108 10.8695 10.9815
H 10.7082 12.0431 12.1479
H 12.158 10.6744 12.1515
H 12.1248 12.164 10.8937
H 10.791 10.7192 13.3363
H 10.8553 11.9657 14.4941
H 12.0122 10.5681 14.5511
H 12.1454 12.098 13.3974
H 10.8985 10.6906 15.8216
H 10.8877 11.9622 17.1127
H 12.104 10.6925 17.1596
H 12.0319 12.0133 15.7519
H 10.796 10.7196 18.4274
H 10.7619 11.9374 19.6482
H 12.1297 10.6081 19.6493
H 12.0024 12.0787 18.3473
H 10.843 10.8455 20.8161
H 10.7612 11.9809 22.1472
H 12.0375 10.7887 22.2489
H 12.115 11.944 20.9897
H 10.7531 13.1993 0.713464
H 10.8091 14.6315 1.9129
H 12.1025 13.4694 1.83885
H 12.0227 14.5997 0.500077
H 10.7871 13.3596 3.0092
H 10.8024 14.5705 4.40527
H 11.8875 13.3429 4.39686
H 12.0643 14.6274 3.23659
H 10.7666 13.3521 5.85173
H 10.8366 14.6959 7.09047
H 12.1034 13.4464 7.07064
H 12.027 14.5826 5.66346
H 10.7235 13.2656 8.23022
H 10.8717 14.5554 9.46666
H 12.188 13.2481 9.43958
H 12.0276 14.5333 8.23551
H 10.8035 13.3616 10.8815
H 10.7611 14.7134 12.0576
H 12.017 13.2668 12.0488
H 12.0447 14.8754 10.9399
H 10.722 13.2349 13.3714
H 10.6114 14.6566 14.4625
H 12.0925 13.2969 14.577
H 11.9507 14.5838 13.4281
H 10.8596 13.1577 15.7855
H 10.7255 14.6233 17.088
H 11.8998 13.3324 17.0264
H 12.0117 14.5894 15.9813
H 10.5284 13.2188 18.2295
H 10.7205 14.4857 19.5668
H 12.0739 13.3998 19.6761
H 11.9379 14.7552 18.4614
H 10.8666 13.3033 21.003
H 10.7528 14.6788 22.2044
H 12.0117 13.2611 22.2287
H 12.0296 14.5227 20.7675
H 10.8053 15.9406 0.584911
H 10.8848 17.1466 1.84389
H 12.0631 15.6864 1.92026
H 12.2225 17.1073 0.773117
H 10.797 15.7774 3.1173
H 10.836 17.1973 4.43872
H 12.0068 15.8267 4.45487
H 12.0313 17.1583 3.15477
H 10.7103 15.8662 5.62242
H 10.9391 17.1663 6.98639
H 12.0356 15.894 6.87765
H 11.9988 17.2763 5.66108
H 10.6337 15.8609 8.3224
H 10.7324 17.199 9.32392
H 12.0638 15.904 9.44233
H 12.0115 17.146 8.13555
H 10.7449 15.803 10.7157
H 10.8367 17.0656 12.0152
H 12.0826 15.9552 12.1789
H 12.1179 17.2761 10.7688
H 10.9074 15.829 13.3728
H 10.897 17.123 14.7257
H 12.0248 15.794 14.5855
H 12.059 17.1665 13.3833
H 10.7224 15.7597 15.851
H 10.8811 17.1124 17.1867
H 12.0805 15.8166 17.1177
H 12.1052 16.9322 15.9844
H 10.7315 15.842 18.4055
H 10.6918 17.1803 19.6088
H 12.1488 15.9224 19.5159
H 11.961 17.0983 18.4709
H 10.853 15.8876 20.8051
H 10.8226 17.1633 22.1976
H 12.1341 15.7885 22.0852
H 12.1262 17.0066 20.9292
H 10.9646 18.5199 0.527915
H 10.8564 19.7193 1.90005
H 12.1373 18.2675 1.85309
H 12.0929 19.5475 0.557244
H 10.7957 18.4708 3.1151
H 10.6617 19.7528 4.40776
H 12.0076 18.474 4.42083
H 12.0625 19.7148 3.09972
H 10.7111 18.4016 5.73479
H 10.7731 19.7965 7.07785
H 11.9783 18.4164 7.08519
H 12.0671 19.6267 5.85701
H 10.6933 18.383 8.39283
H 10.6936 19.6932 9.82915
H 11.9 18.4127 9.54755
H 11.999 19.599 8.28693
H 10.6944 18.2998 10.7605
H 10.7558 19.6675 12.0643
H 11.9354 18.3555 12.1326
H 12.0124 19.5728 10.9058
H 10.7939 18.334 13.4624
H 10.8435 19.606 14.5956
H 12.0088 18.3606 14.6067
H 12.0284 19.5177 13.175
H 10.6893 18.3909 15.7465
H 10.7958 19.5596 17.1671
H 12.1157 18.338 17.0924
H 12.0777 19.5858 16.0011
H 10.9207 18.3867 18.422
H 10.6731 19.5119 19.7118
H 12.1271 18.3743 19.6472
H 11.9959 19.7068 18.4694
H 10.804 18.4269 20.7807
H 10.8366 19.6019 22.1528
H 12.0222 18.2228 22.1188
H 12.0906 19.5419 20.8821
H 10.9193 20.7863 0.571298
H 10.8304 22.393 1.84194
H 12.0404 20.9548 1.81243
H 12.0636 22.2978 0.563835
H 10.6219 20.8678 3.14952
H 10.7751 22.2763 4.33252
H 12.119 20.9899 4.45967
H 11.8923 22.1366 3.11113
H 10.8833 21.0167 5.62488
H 10.6606 22.2013 6.96346
H 12.0253 21.0502 7.08905
H 12.0179 22.1954 5.80736
H 10.8766 20.9256 8.27794
H 10.866 22.2539 9.5758
H 12.1883 20.9069 9.51948
H 12.1464 22.2303 8.45361
H 10.8834 20.9447 10.6855
H 10.7366 22.0751 12.0305
H 12.1319 20.9269 12.1027
H 12.1054 22.1636 10.8032
H 10.7119 20.8802 13.396
H 10.8952 22.1299 14.7017
H 11.936 20.7134 14.7134
H 12.0927 22.0382 13.3707
H 10.6451 20.9303 15.8425
H 10.7329 22.1998 17.0638
H 12.0464 20.7597 16.976
H 12.1344 22.1353 15.8858
H 10.8481 21.0459 18.3634
H 10.6913 22.1787 19.6904
H 11.9867 20.9493 19.761
H 11.9999 22.3365 18.342
H 10.8028 20.8262 20.9131
H 10.9272 22.1808 22.198
H 12.1264 21.1114 22.2666
H 12.1446 22.1479 20.8158
H 13.3818 0.703648 0.586266
H 13.3722 1.84019 1.89201
H 14.5297 0.529957 2.02208
H 14.6172 1.97423 0.729893
H 13.2273 0.596052 3.18148
H 13.2812 1.82402 4.45991
H 14.5248 0.666139 4.54836
H 14.5748 1.91439 3.22119
H 13.2632 0.634596 5.74645
H 13.4148 2.05783 6.82289
H 14.6875 0.685143 7.06131
H 14.6187 1.81935 5.68286
H 13.2578 0.610681 8.34676
H 13.3401 1.94108 9.49613
H 14.6076 0.700928 9.58052
H 14.6355 2.03848 8.27849
H 13.3093 0.565275 10.7768
H 13.1891 1.80655 12.042
H 14.5826 0.632582 12.0571
H 14.5417 1.88824 10.8588
H 13.4136 0.546042 13.4301
H 13.2135 1.89426 14.5008
H 14.5749 0.64269 14.5805
H 14.489 1.96986 13.2808
H 13.415 0.692639 15.8657
H 13.4397 2.02342 17.1205
H 14.6018 0.805835 17.0588
H 14.5939 2.17289 15.8976
H 13.4186 0.667812 18.3591
H 13.305 1.9233 19.5983
H 14.5787 0.719212 19.4896
H 14.5777 2.0053 18.2149
H 13.4086 0.707759 20.8898
H 13.3252 2.09713 22.2245
H 14.5408 0.62604 22.2211
H 14.5214 1.89808 20.9347
H 13.4477 3.31317 0.643762
H 13.3011 4.60952 1.76302
H 14.5758 3.24226 2.07289
H 14.4898 4.56861 0.682292
H 13.2948 3.18281 3.18774
H 13.3855 4.4824 4.46605
H 14.5258 3.18771 4.33303
H 14.5721 4.59307 3.17081
H 13.3874 3.15792 5.43322
H 13.2325 4.28014 6.99765
H 14.5619 3.20996 6.95751
H 14.6353 4.26668 5.61499
H 13.3537 3.14508 8.24086
H 13.047 4.52357 9.49592
H 14.5045 3.20674 9.63218
H 14.435 4.54841 8.32296
H 13.354 3.17919 10.8043
H 13.3343 4.55263 12.0319
H 14.607 3.20419 12.1005
H 14.5021 4.36264 10.6808
H 13.2405 3.12681 13.4157
H 13.2665 4.58995 14.6943
H 14.5013 3.38978 14.5968
H 14.5378 4.47222 13.2318
H 13.1273 3.30411 15.8214
H 13.2944 4.44489 17.1791
H 14.5843 3.27392 17.1438
H 14.4673 4.42385 15.8981
H 13.3908 3.25867 18.3301
H 13.2358 4.38163 19.6858
H 14.6458 3.10962 19.6389
H 14.5548 4.42484 18.5251
H 13.3685 3.27005 20.927
H 13.3737 4.33488 22.1774
H 14.6964 3.21225 22.3283
H 14.6014 4.5511 20.8071
H 13.1549 5.7611 0.467027
H 13.1531 6.83866 1.81152
H 14.5236 5.77 2.00646
H 14.4804 7.05449 0.729607
H 13.2526 5.75177 3.28167
H 13.433 6.89483 4.52051
H 14.5663 5.66457 4.55418
H 14.5765 7.03293 3.08462
H 13.1846 5.60027 5.68257
H 13.3815 6.94209 6.95641
H 14.629 5.64684 7.04283
H 14.573 6.7571 5.78073
H 13.2963 5.66498 8.23965
H 13.3894 6.8287 9.50419
H 14.5508 5.68773 9.56518
H 14.4661 6.95716 8.16716
H 13.3114 5.68387 10.8517
H 13.2747 6.80309 12.1663
H 14.6417 5.56326 11.9606
H 14.6036 6.88091 10.8099
H 13.2454 5.68888 13.2341
H 13.3129 6.83613 14.5388
H 14.5892 5.6851 14.614
H 14.6925 6.91528 13.3057
H 13.3907 5.64282 15.9499
H 13.391 6.95629 17.09
H 14.6273 5.5811 17.2085
H 14.6349 6.95767 15.8335
H 13.3207 5.74654 18.3953
H 13.2601 6.96878 19.7047
H 14.5842 5.71507 19.7137
H 14.5632 6.97789 18.3974
H 13.2707 5.75898 20.7081
H 13.3578 6.80179 22.1252
H 14.6629 5.92327 22.2408
H 14.5762 7.12865 20.7898
H 13.4169 8.2311 0.586022
H 13.3059 9.4611 1.88072
H 14.6172 8.15211 1.93054
H 14.6159 9.45207 0.58589
H 13.4196 8.25112 3.17124
H 13.1613 9.37678 4.48225
H 14.5332 8.16191 4.4865
H 14.4747 9.50309 3.23964
H 13.3002 8.20919 5.71674
H 13.2714 9.45457 7.04819
H 14.5686 8.09948 6.83316
H 14.4296 9.501 5.79721
H 13.3115 8.21252 8.16986
H 13.3881 9.59791 9.37364
H 14.394 8.10228 9.50203
H 14.5157 9.57929 8.11612
H 13.3191 8.09405 10.7486
H 13.3985 9.60892 11.9234
H 14.4913 8.17297 11.8407
H 14.5642 9.43265 10.6289
H 13.472 8.16142 13.3342
H 13.4179 9.46106 14.5477
H 14.5807 8.08968 14.49
H 14.6147 9.55181 13.2158
H 13.2671 8.13541 15.7532
H 13.3005 9.43558 17.0237
H 14.5021 8.30785 17.1612
H 14.6466 9.41253 15.8643
H 13.2623 8.14559 18.3819
H 13.2816 9.49069 19.5627
H 14.5163 8.28506 19.716
H 14.4969 9.46043 18.4418
H 13.1916 8.36557 20.9596
H 13.3172 9.49365 22.2372
H 14.5052 8.19891 22.2101
H 14.5565 9.49985 20.89
H 13.3526 10.7574 0.657685
H 13.1855 12.0859 1.77575
H 14.5165 10.7338 2.02757
H 14.5003 12.047 0.558548
H 13.2888 10.7545 3.25229
H 13.255 11.9542 4.53472
H 14.6619 10.8237 4.47438
H 14.5351 12.049 3.17164
H 13.3726 10.733 5.56612
H 13.3726 12.0722 6.87413
H 14.526 10.5597 6.89242
H 14.6517 11.921 5.80222
H 13.2307 10.8157 8.01217
H 13.311 11.9521 9.46262
H 14.4297 10.6832 9.46127
H 14.536 12.0282 8.20875
H 13.1895 10.7581 10.7593
H 13.4028 12.1547 12.0492
H 14.6129 10.76 12.0419
H 14.5217 11.9595 10.7107
H 13.3992 10.598 13.3659
H 13.2776 11.9901 14.5638
H 14.4618 10.8046 14.4464
H 14.718 12.0961 13.4246
H 13.3878 10.6495 15.8455
H 13.331 12.0408 17.0521
H 14.5708 10.6935 16.9696
H 14.5895 12.1343 15.8201
H 13.4866 10.7021 18.2636
H 13.1801 11.9348 19.6191
H 14.7679 10.8636 19.6752
H 14.6557 12.0216 18.2728
H 13.3428 10.736 20.9761
H 13.3459 11.9835 22.1226
H 14.698 10.7096 22.2646
H 14.5753 11.9927 20.8589
H 13.2786 13.2942 0.567247
H 13.2866 14.4512 2.01089
H 14.4602 13.1591 1.78408
H 14.7605 14.5555 0.667214
H 13.4293 13.2827 3.21351
H 13.2104 14.4814 4.47942
H 14.6227 13.3255 4.55461
H 14.5568 14.4829 3.15176
H 13.2317 13.2865 5.65848
H 13.1889 14.6639 6.88683
H 14.5577 13.311 6.85699
H 14.5369 14.5483 5.53097
H 13.2841 13.2683 8.23471
H 13.2561 14.6154 9.68605
H 14.472 13.2605 9.47037
H 14.4081 14.5791 8.33708
H 13.3996 13.4585 10.8908
H 13.3146 14.6467 12.1724
H 14.557 13.2851 12.0828
H 14.6808 14.6039 10.7725
H 13.4153 13.4283 13.3401
H 13.2515 14.5695 14.6099
H 14.5104 13.2922 14.5847
H 14.7199 14.6253 13.4471
H 13.4284 13.3078 15.969
H 13.2747 14.5165 17.0356
H 14.686 13.2911 17.1843
H 14.65 14.5782 15.7258
H 13.262 13.2944 18.2697
H 13.3098 14.5903 19.5512
H 14.5593 13.276 19.514
H 14.5302 14.5551 18.3914
H 13.4259 13.1269 20.8839
H 13.3942 14.4734 22.1807
H 14.8083 13.2038 22.1985
H 14.7823 14.4438 21.0337
H 13.2843 15.7078 0.589594
H 13.3164 16.9763 1.86642
H 14.5686 15.6544 1.92614
H 14.5619 17.0931 0.765902
H 13.3975 15.9909 3.15088
H 13.1623 17.0654 4.24974
H 14.56 15.732 4.43043
H 14.5859 17.1853 3.3472
H 13.2168 15.8443 5.7271
H 13.2483 17.0066 7.01147
H 14.4399 15.8612 7.00993
H 14.5303 17.1467 5.68449
H 13.3428 15.8043 8.23106
H 13.2913 17.052 9.48859
H 14.4671 15.7839 9.62887
H 14.4969 17.1713 8.21155
H 13.3692 15.9787 10.7227
H 13.2128 16.9697 12.0325
H 14.7041 15.6922 12.0656
H 14.5687 17.0856 10.9728
H 13.1908 15.9584 13.361
H 13.3735 17.2481 14.8051
H 14.5782 15.8746 14.5226
H 14.7141 17.1766 13.2752
H 13.2101 15.8182 15.8045
H 13.4229 17.1767 17.3021
H 14.6096 15.7429 17.2233
H 14.5292 17.0157 15.9433
H 13.2758 15.9009 18.3179
H 13.2719 17.1666 19.5787
H 14.4991 15.7249 19.7385
H 14.5734 17.0652 18.3711
H 13.2745 15.7163 20.9684
H 13.3984 16.9906 22.0766
H 14.5642 15.8027 22.2022
H 14.7043 16.9126 20.8192
H 13.4664 18.3662 0.453269
H 13.4163 19.6508 1.80674
H 14.3223 18.2955 1.88664
H 14.5993 19.6135 0.635272
H 13.267 18.5423 3.0711
H 13.2961 19.7029 4.51076
H 14.5505 18.388 4.47709
H 14.5458 19.698 3.22439
H 13.2423 18.4244 5.66888
H 13.3562 19.7974 7.1215
H 14.5591 18.3329 6.92575
H 14.4541 19.7571 5.68496
H 13.4087 18.4632 8.18058
H 13.2381 19.452 9.40196
H 14.5055 18.301 9.62887
H 14.4119 19.7922 8.24553
H 13.2926 18.2997 10.9422
H 13.3791 19.7097 12.2062
H 14.5594 18.3303 12.1541
H 14.5367 19.628 10.7604
H 13.1882 18.1707 13.4303
H 13.2764 19.6959 14.4562
H 14.5197 18.3107 14.6101
H 14.676 19.597 13.2839
H 13.3647 18.4012 15.9203
H 13.3268 19.6655 17.2322
H 14.6196 18.4153 17.1665
H 14.4633 19.6198 15.8377
H 13.384 18.3646 18.2787
H 13.306 19.5501 19.5765
H 14.5022 18.366 19.66
H 14.7121 19.5895 18.402
H 13.5578 18.2635 20.9147
H 13.275 19.6492 22.0046
H 14.7157 18.5324 22.2651
H 14.6022 19.7832 20.8967
H 13.2236 20.8567 0.547797
H 13.4103 22.157 1.84326
H 14.6114 20.9346 1.83509
H 14.6313 22.2226 0.65341
H 13.2356 20.8755 3.15823
H 13.2992 22.1978 4.55925
H 14.5472 20.8523 4.56251
H 14.5426 22.1802 3.35971
H 13.3836 20.9322 5.67539
H 13.3509 22.2231 7.11431
H 14.5755 20.8879 7.05357
H 14.6125 22.098 5.85009
H 13.2765 21.0232 8.40089
H 13.2994 22.2121 9.69756
H 14.6214 20.8158 9.59649
H 14.5742 22.1383 8.29515
H 13.3617 20.7538 10.7588
H 13.2997 22.1522 12.2477
H 14.5522 20.8951 12.1045
H 14.5839 22.1704 10.8399
H 13.2668 20.8775 13.5071
H 13.3656 22.2329 14.766
H 14.5163 20.8408 14.4863
H 14.8045 22.1662 13.3829
H 13.3072 20.9651 16.0355
H 13.2058 22.1368 17.1392
H 14.6317 20.8377 17.1622
H 14.6566 22.2087 15.9676
H 13.3167 21.0432 18.3612
H 13.452 22.171 19.6372
H 14.7025 20.8728 19.5838
H 14.6387 22.1892 18.2793
H 13.393 20.8412 20.9538
H 13.4413 22.3265 22.0574
H 14.5992 20.9664 22.1966
H 14.5923 22.2511 20.8464
H 15.7713 0.703738 0.653626
H 15.8637 1.95049 1.98701
H 17.1262 0.589192 1.82528
H 17.0604 1.81892 0.565381
H 15.8166 0.663412 3.20077
H 15.9334 1.96263 4.43873
H 17.1688 0.657668 4.42733
H 17.1839 1.94123 3.20777
H 15.8401 0.465496 5.694
H 15.965 1.79487 6.88449
H 17.23 0.600435 6.91969
H 16.972 2.01131 5.64431
H 15.7901 0.588259 8.24775
H 15.709 1.93097 9.40623
H 17.1136 0.60559 9.46295
H 17.0704 1.77164 8.20749
H 15.833 0.636632 10.7945
H 15.7054 1.90506 11.9817
H 17.0319 0.51521 12.0209
H 17.0848 1.79611 10.8616
H 15.8572 0.727284 13.4488
H 15.8087 1.90065 14.5824
H 17.0406 0.604115 14.8875
H 17.114 1.85356 13.4666
H 15.7714 0.732473 15.883
H 15.9027 1.96191 17.1057
H 17.1505 0.640254 16.917
H 17.1881 2.11661 15.9176
H 15.8655 0.53017 18.419
H 15.8139 1.95246 19.6266
H 16.9998 0.587363 19.611
H 16.9655 2.01709 18.3376
H 15.8714 0.75408 20.9362
H 15.8498 1.91193 22.308
H 17.2015 0.702028 22.0337
H 16.9193 1.98681 20.8463
H 15.7121 3.18007 0.928519
H 15.7965 4.49467 1.95099
H 17.1 3.23933 1.94419
H 17.0564 4.44827 0.840639
H 15.8419 3.12396 3.27006
H 15.8205 4.45222 4.48991
H 17.0138 3.24485 4.51166
H 17.1393 4.48629 3.18937
H 15.7791 3.16695 5.67894
H 15.8572 4.34844 6.87307
H 17.0372 3.05809 7.12086
H 17.1652 4.34034 5.7776
H 15.7308 3.16681 8.13498
H 15.7889 4.37382 9.49482
H 17.0993 3.11015 9.27876
H 17.0713 4.5025 8.13142
H 15.8546 3.24188 10.6958
H 15.9806 4.44283 11.9397
H 17.0967 3.05953 12.1575
H 17.0545 4.44644 10.5801
H 15.7373 3.28002 13.319
H 15.9281 4.43972 14.4721
H 17.1116 3.24432 14.5626
H 17.1952 4.57237 13.2718
H 15.9425 3.14296 15.7349
H 15.9309 4.34556 17.001
H 17.176 3.33459 17.3076
H 17.1925 4.4765 15.8007
H 15.9227 3.22779 18.3744
H 16.0268 4.61128 19.6306
H 17.282 3.29365 19.7763
H 16.9969 4.53501 18.4255
H 15.8735 3.26838 20.9325
H 15.7427 4.51572 22.3171
H 16.9323 3.30713 22.2307
H 17.0343 4.67838 21.0386
H 15.7654 5.64642 0.674662
H 15.8193 6.88497 1.94458
H 17.2474 5.71512 1.97915
H 17.0593 6.87752 0.802963
H 15.9035 5.75598 3.13856
H 15.7018 6.93051 4.38118
H 17.0983 5.67998 4.49108
H 17.1965 6.92592 3.14578
H 15.8899 5.74545 5.73292
H 15.8226 6.98779 7.14197
H 17.0173 5.75121 6.94232
H 17.0968 6.97483 5.85079
H 15.9053 5.59331 8.1428
H 15.7497 6.94707 9.3803
H 17.3344 5.73854 9.48745
H 17.1307 6.90943 8.14542
H 15.9127 5.69807 10.6551
H 15.8408 7.07592 12.1178
H 17.1988 5.80093 11.8983
H 17.0656 7.11255 10.7419
H 15.8088 5.61244 13.1667
H 15.8407 6.99138 14.5741
H 17.0986 5.66259 14.3636
H 17.0704 6.93206 13.2496
H 15.8689 5.84253 15.8199
H 15.7724 6.96219 17.1489
H 17.0234 5.78274 17.1666
H 17.1687 6.98315 15.7513
H 15.8973 5.58807 18.3589
H 16.12 7.11615 19.5966
H 17.3035 5.74738 19.6379
H 17.099 6.956 18.3242
H 15.7854 5.90064 20.9093
H 15.8052 7.01753 22.2958
H 17.056 5.74339 22.2805
H 17.1089 6.94175 20.9306
H 15.7462 8.25331 0.674587
H 15.8043 9.51367 2.0077
H 17.1236 8.18535 1.94426
H 17.1002 9.45503 0.656901
H 15.9564 8.15698 3.14873
H 15.757 9.40253 4.52593
H 17.0145 8.18104 4.60365
H 17.1239 9.54889 3.23898
H 15.8864 8.1825 5.69336
H 15.8836 9.53214 6.99382
H 17.2189 8.22732 6.9655
H 17.0247 9.47368 5.88481
H 15.8266 8.21093 8.34609
H 15.7229 9.50214 9.40973
H 17.1647 8.36836 9.50744
H 17.2682 9.56713 8.22386
H 15.8177 8.20248 10.6093
H 15.9131 9.45135 11.8792
H 17.1191 8.21491 11.8522
H 17.1165 9.49787 10.7851
H 15.9546 8.32616 13.3898
H 15.9148 9.5615 14.5858
H 17.0843 8.27193 14.5933
H 17.0972 9.43756 13.175
H 15.8947 8.21681 15.829
H 15.8409 9.46957 16.9971
H 17.0912 8.15028 17.0956
H 17.2751 9.413 15.8239
H 15.9202 8.13185 18.4258
H 15.8232 9.46827 19.5682
H 17.1682 8.22614 19.6656
H 17.0408 9.33984 18.3578
H 15.7854 8.23653 20.8617
H 15.8096 9.50558 22.0056
H 17.0567 8.19385 22.1498
H 17.1068 9.38856 20.7963
H 15.8823 10.8103 0.715143
H 15.7791 11.967 1.94225
H 17.0036 10.5594 1.92452
H 17.0702 12.0172 0.725496
H 15.7708 10.7036 3.17524
H 15.9588 11.9014 4.3792
H 17.112 10.6539 4.52484
H 17.1919 11.9571 3.15381
H 15.8656 10.7949 5.86115
H 15.7235 12.162 6.99527
H 17.2368 10.8787 7.00633
H 16.9467 11.9642 5.68974
H 15.7134 10.9181 8.23847
H 15.845 11.9831 9.50792
H 17.2057 10.7186 9.60369
H 17.063 12.0636 8.30814
H 15.9247 10.9326 10.7185
H 15.8866 12.0463 11.938
H 17.114 10.8693 11.9113
H 17.2702 12.0979 10.6651
H 15.9851 10.6748 13.2345
H 15.877 11.9615 14.5498
H 17.2005 10.7307 14.5126
H 17.3094 11.939 13.4109
H 15.9833 10.7083 15.7804
H 15.9096 11.9693 17.069
H 17.2376 10.5728 16.9372
H 17.1646 11.9473 15.8536
H 15.8753 10.677 18.2141
H 15.7651 12.0248 19.5325
H 17.1807 10.7263 19.4907
H 17.2099 11.9433 18.4202
H 15.9508 10.7072 21.0089
H 15.8386 11.9387 22.2298
H 17.2204 10.6899 22.2174
H 17.0151 12.0881 20.8589
H 15.8049 13.3358 0.703902
H 15.9902 14.4428 1.86134
H 17.2205 13.2043 1.86391
H 17.1412 14.4707 0.557518
H 15.7267 13.2484 3.0326
H 15.8123 14.474 4.30458
H 17.0801 13.2793 4.39435
H 17.1287 14.437 3.13471
H 15.8882 13.386 5.70592
H 15.7781 14.4913 7.13222
H 17.0366 13.1723 6.99842
H 17.005 14.6589 5.70648
H 15.8228 13.3482 8.3476
H 15.6803 14.4703 9.51167
H 16.9817 13.32 9.63569
H 17.15 14.4977 8.1841
H 15.7848 13.2929 10.7807
H 16.047 14.6152 12.0901
H 17.0427 13.3597 12.1222
H 17.1171 14.6073 10.8198
H 15.8214 13.2973 13.3424
H 15.9366 14.5771 14.5569
H 17.2572 13.2471 14.6443
H 17.1561 14.7335 13.3654
H 15.9168 13.2484 15.6985
H 15.845 14.5692 17.073
H 17.0679 13.2286 17.0129
H 17.0982 14.5185 15.722
H 15.97 13.2414 18.4284
H 15.6623 14.5737 19.6526
H 17.0891 13.2339 19.6231
H 17.0913 14.4749 18.48
H 15.852 13.3485 20.9631
H 15.8293 14.4283 22.2104
H 17.1004 13.2543 22.3615
H 17.2099 14.4632 20.8681
H 15.9872 15.8395 0.667652
H 15.6849 17.0772 1.91018
H 17.0595 15.9036 2.00737
H 17.1446 17.0804 0.815486
H 15.8092 15.7491 3.12216
H 15.8345 17.1616 4.35082
H 17.0075 15.8042 4.25669
H 17.1653 17.0449 3.19946
H 15.8792 15.7802 5.7811
H 15.8001 16.9132 7.10399
H 17.1482 15.8145 7.09032
H 16.9178 17.1967 5.67212
H 15.7857 15.7387 8.1419
H 15.824 17.0154 9.43444
H 17.0935 15.7954 9.54608
H 16.9648 17.0913 8.30758
H 15.8358 15.8502 10.6815
H 15.6766 17.1897 12.044
H 17.1318 15.7912 12.008
H 17.132 17.0245 10.9054
H 15.8159 15.8267 13.4569
H 15.8099 17.0683 14.6768
H 17.0577 15.7824 14.6596
H 17.0888 17.0596 13.2861
H 15.8008 15.9332 15.946
H 15.9772 17.1906 17.2661
H 17.1224 15.8756 17.2504
H 17.2717 17.0361 15.9015
H 15.8259 15.8497 18.3375
H 15.7528 17.0819 19.5797
H 17.0319 15.699 19.6037
H 17.0241 17.082 18.3077
H 16.064 15.778 20.9998
H 15.7016 17.1413 22.1866
H 17.1016 15.8856 22.0873
H 17.0902 17.0981 20.8605
H 16.1073 18.3633 0.513192
H 15.9115 19.6459 2.05716
H 17.1608 18.3504 1.93392
H 17.2562 19.6479 0.839328
H 15.7777 18.3977 3.23084
H 15.8663 19.6425 4.65328
H 16.9879 18.304 4.24353
H 17.058 19.7409 3.34786
H 15.7949 18.4233 5.82241
H 15.9073 19.651 7.13808
H 17.1253 18.3652 7.00979
H 17.0325 19.6483 5.62253
H 15.6509 18.4809 8.25523
H 15.8537 19.561 9.53671
H 17.043 18.3122 9.73933
H 17.0022 19.5539 8.35586
H 15.7628 18.3602 10.7741
H 15.7044 19.6001 12.0175
H 17.0531 18.3438 12.2138
H 16.979 19.6573 10.8164
H 15.9244 18.4108 13.3739
H 15.8412 19.4358 14.6905
H 17.1577 18.2594 14.5322
H 17.1486 19.5549 13.152
H 15.7877 18.3439 15.8458
H 15.8975 19.6392 17.0806
H 17.1571 18.3946 17.1102
H 17.0527 19.5853 15.761
H 15.8162 18.3652 18.4326
H 15.94 19.5696 19.6186
H 17.1436 18.3809 19.8008
H 17.0252 19.6173 18.3504
H 15.7392 18.3756 20.8093
H 15.7973 19.7664 22.1605
H 17.0675 18.3815 22.1885
H 17.0571 19.7444 21.159
H 15.9156 20.8222 0.622936
H 15.8459 22.328 2.00255
H 17.0842 20.9259 1.88234
H 17.0214 22.1945 0.510234
H 15.7431 20.898 3.17863
H 15.843 22.1286 4.27672
H 17.1446 20.9701 4.43156
H 17.1714 22.1818 3.19241
H 15.921 20.9648 5.71859
H 15.8041 21.9675 6.95219
H 17.1639 20.9949 7.15381
H 17.1493 22.1503 5.81001
H 15.6834 20.9692 8.27473
H 15.8537 22.1633 9.46853
H 17.1192 20.9092 9.57281
H 17.1384 22.2189 8.26914
H 15.8466 21.0073 10.8593
H 15.9297 22.1335 12.0648
H 16.9981 20.8342 12.1395
H 17.1668 22.2018 10.8254
H 15.9246 20.9225 13.5111
H 15.7444 22.1848 14.7301
H 17.0033 20.771 14.636
H 17.1133 22.2144 13.3314
H 15.8276 20.946 15.7723
H 15.8984 22.2676 17.1119
H 17.1467 20.8063 17.1179
H 17.096 22.0897 16.0139
H 15.804 20.882 18.3947
H 15.7473 22.1854 19.5054
H 17.1515 20.8247 19.6944
H 17.0388 22.1528 18.3244
H 15.8737 20.9548 20.7439
H 15.7975 22.1439 22.1689
H 17.1643 20.9382 22.1262
H 17.1882 22.2028 21.0536
H 18.3142 0.693291 0.46401
H 18.29 1.96442 1.81775
H 19.5315 0.347806 1.90596
H 19.604 1.78951 0.745919
H 18.2973 0.488989 3.22447
H 18.4343 1.7873 4.54971
H 19.6564 0.640814 4.41874
H 19.6412 1.9282 3.29594
H 18.2585 0.677561 5.63299
H 18.3762 1.94627 6.9216
H 19.6897 0.637803 6.86973
H 19.788 1.84501 5.6677
H 18.4037 0.638771 8.22377
H 18.2049 1.82571 9.71393
H 19.5075 0.53865 9.61697
H 19.7436 1.89344 8.41468
H 18.3739 0.673101 10.7782
H 18.3973 1.75426 12.1435
H 19.5804 0.639899 12.1236
H 19.7353 2.08564 10.7875
H 18.4043 0.684249 13.2918
H 18.4797 1.8242 14.6718
H 19.6349 0.641477 14.6735
H 19.657 1.89146 13.3791
H 18.3893 0.702467 15.8676
H 18.2222 1.94845 17.1779
H 19.6443 0.673725 17.0864
H 19.656 2.01929 15.8593
H 18.2457 0.575454 18.3717
H 18.2687 1.82473 19.7003
H 19.4952 0.5843 19.6456
H 19.5343 1.93709 18.4119
H 18.3377 0.587024 20.8604
H 18.3031 1.8942 22.1035
H 19.5349 0.674871 22.2356
H 19.6542 1.91042 20.8826
H 18.2343 3.16942 0.663204
H 18.2106 4.36935 2.03239
H 19.4647 3.0838 1.87141
H 19.5355 4.53793 0.766761
H 18.4504 3.09117 3.20805
H 18.2996 4.40809 4.54998
H 19.6431 3.24675 4.49083
H 19.6118 4.44605 3.29855
H 18.3307 3.06288 5.80788
H 18.4684 4.57207 7.08885
H 19.7416 3.27393 7.01895
H 19.5639 4.32665 5.64101
H 18.242 3.08575 8.26589
H 18.3535 4.36817 9.47993
H 19.6348 3.17318 9.54032
H 19.6944 4.34396 8.35582
H 18.319 3.12483 10.9115
H 18.3894 4.36358 12.0674
H 19.8504 3.09719 11.9545
H 19.6792 4.48881 10.7932
H 18.398 3.09263 13.1774
H 18.352 4.30719 14.4956
H 19.6979 3.24492 14.5095
H 19.7053 4.47021 13.1901
H 18.3643 3.17357 15.949
H 18.3845 4.40521 17.1198
H 19.5258 3.14878 17.0864
H 19.5046 4.51669 15.8536
H 18.4905 3.23147 18.6936
H 18.2214 4.5041 19.614
H 19.6826 3.29365 19.8815
H 19.5379 4.43023 18.3148
H 18.3204 3.16468 20.9595
H 18.2393 4.39832 22.2347
H 19.4286 3.19375 22.3189
H 19.6021 4.45028 21.0625
H 18.3581 5.78075 0.527158
H 18.4019 6.99772 1.78323
H 19.5326 5.67927 2.00427
H 19.6983 6.92559 0.71709
H 18.3999 5.80754 3.30811
H 18.3812 7.11761 4.41974
H 19.6594 5.66333 4.50979
H 19.6985 6.93751 3.37813
H 18.3313 5.85851 5.69065
H 18.4632 6.9554 6.94092
H 19.8042 5.62958 7.00428
H 19.731 6.8571 5.69179
H 18.3668 5.57431 8.2879
H 18.443 6.97926 9.49487
H 19.7269 5.65735 9.46404
H 19.5695 6.94991 8.19768
H 18.5137 5.5706 10.674
H 18.3466 6.82396 11.9557
H 19.798 5.86107 12.0172
H 19.7101 6.99339 10.6254
H 18.4385 5.81359 13.1895
H 18.4877 7.16201 14.3668
H 19.6367 5.64212 14.5624
H 19.7569 6.91705 13.2032
H 18.3578 5.7887 15.7421
H 18.3522 7.08681 16.9996
H 19.5799 5.77752 17.0519
H 19.6405 7.13078 15.7946
H 18.4093 5.73979 18.3076
H 18.391 6.94534 19.4722
H 19.6095 5.60857 19.6758
H 19.7131 6.96351 18.3075
H 18.5765 5.84272 20.9479
H 18.2347 7.02434 22.3063
H 19.6889 5.87727 22.1944
H 19.761 6.88542 20.7274
H 18.2958 8.15841 0.653476
H 18.2584 9.60353 1.83195
H 19.566 8.15531 2.03457
H 19.6931 9.34049 0.794838
H 18.3295 8.287 3.24634
H 18.434 9.4442 4.48725
H 19.7681 8.2053 4.5616
H 19.6083 9.53894 3.25187
H 18.3991 8.20969 5.62237
H 18.425 9.39824 6.80972
H 19.6602 8.17236 6.99178
H 19.7174 9.46346 5.64382
H 18.3576 8.38615 8.19776
H 18.4745 9.51411 9.48637
H 19.778 8.14027 9.40182
H 19.4855 9.43421 8.0409
H 18.3754 8.17469 10.8095
H 18.4864 9.5886 11.9294
H 19.5886 8.21905 12.0727
H 19.7457 9.45758 10.7073
H 18.2719 8.33841 13.167
H 18.4673 9.49659 14.4736
H 19.7261 8.16863 14.4862
H 19.7512 9.44556 13.3318
H 18.4548 8.38621 15.7299
H 18.3818 9.41279 17.1792
H 19.6512 8.19836 17.0404
H 19.7078 9.50787 15.7936
H 18.4756 8.2687 18.387
H 18.2449 9.55969 19.6868
H 19.6171 8.26074 19.7491
H 19.5976 9.41238 18.2004
H 18.4095 8.25817 20.8723
H 18.3278 9.40844 22.1604
H 19.6751 8.18717 22.2853
H 19.6451 9.63789 20.9205
H 18.383 10.8514 0.580243
H 18.264 11.9487 1.8777
H 19.7167 10.723 1.96974
H 19.5831 12.0008 0.581325
H 18.4353 10.7606 3.22974
H 18.3961 12.051 4.42806
H 19.6736 10.7058 4.41865
H 19.6628 12.0644 3.25691
H 18.4189 10.6809 5.58308
H 18.2017 12.0848 6.8208
H 19.6856 10.8141 6.90304
H 19.6519 12.0975 5.72789
H 18.4975 10.8955 8.31933
H 18.4912 12.2336 9.41935
H 19.803 10.8704 9.52286
H 19.6202 12.0818 8.12285
H 18.4461 10.8031 10.7321
H 18.3511 12.2104 11.9764
H 19.6802 10.8038 12.1513
H 19.6545 11.954 10.8391
H 18.2742 10.6971 13.2711
H 18.5295 12.1061 14.6312
H 19.6619 10.8286 14.4768
H 19.6543 12.0205 13.2516
H 18.5102 10.5609 15.8573
H 18.4479 11.9701 17.1099
H 19.7377 10.8268 17.1849
H 19.5308 11.9706 15.8639
H 18.5156 10.6914 18.2523
H 18.3453 11.997 19.5558
H 19.6281 10.6799 19.5438
H 19.6355 12.101 18.321
H 18.3513 10.726 21.0341
H 18.2799 11.8949 22.3113
H 19.6528 10.6065 22.2885
H 19.5595 11.9122 20.9381
H 18.4316 13.3046 0.746898
H 18.4017 14.6751 1.95342
H 19.6733 13.2659 1.95048
H 19.6532 14.5809 0.779045
H 18.4394 13.208 3.22472
H 18.4293 14.5959 4.35715
H 19.7824 13.328 4.44727
H 19.6691 14.5911 3.1887
H 18.3424 13.3636 5.46914
H 18.2259 14.5921 6.85469
H 19.6739 13.3481 6.87387
H 19.7186 14.684 5.73927
H 18.4748 13.4427 8.13651
H 18.3529 14.4875 9.48986
H 19.6487 13.3641 9.61497
H 19.7139 14.6234 8.20649
H 18.4468 13.3049 10.7551
H 18.5343 14.4645 12.0427
H 19.7314 13.2869 12.0318
H 19.7138 14.5319 10.7258
H 18.3607 13.261 13.2826
H 18.355 14.6269 14.617
H 19.5834 13.2629 14.5673
H 19.5544 14.5057 13.3026
H 18.4641 13.392 15.7994
H 18.3468 14.5931 17.1705
H 19.6795 13.363 17.1595
H 19.6845 14.5545 15.884
H 18.2316 13.3293 18.3443
H 18.4112 14.3529 19.555
H 19.4818 13.214 19.7194
H 19.8898 14.6227 18.3064
H 18.4396 13.2195 20.9995
H 18.3507 14.4138 22.2625
H 19.6415 13.0936 22.3314
H 19.5739 14.5236 21.0375
H 18.2058 15.8536 0.720003
H 18.5306 17.1276 1.98243
H 19.6244 15.7776 1.9957
H 19.5687 17.0395 0.78378
H 18.2828 15.7657 3.32744
H 18.2915 17.1812 4.54794
H 19.5335 15.809 4.4352
H 19.5082 17.1043 3.22926
H 18.1822 15.882 5.59887
H 18.2719 17.0985 6.96575
H 19.6349 15.9313 6.88661
H 19.4643 17.0256 5.73232
H 18.5038 15.8626 8.2784
H 18.2816 17.0364 9.652
H 19.6832 15.7021 9.42788
H 19.5994 17.0315 8.2318
H 18.3417 15.8589 10.8095
H 18.4404 17.0554 11.9764
H 19.5235 15.8174 12.0585
H 19.7875 17.0497 10.803
H 18.4066 15.9236 13.3016
H 18.3661 17.0984 14.6509
H 19.509 15.7611 14.5165
H 19.738 17.13 13.4138
H 18.4167 15.8208 15.8726
H 18.3469 17.2082 17.1058
H 19.5245 15.8909 17.1974
H 19.6327 17.0508 15.7863
H 18.4079 15.7879 18.3199
H 18.3281 17.1443 19.5433
H 19.6255 15.686 19.5883
H 19.7077 17.0629 18.3868
H 18.3898 15.7744 20.8364
H 18.343 17.0798 22.206
H 19.6133 15.8033 22.2755
H 19.6005 16.8473 20.8918
H 18.4398 18.2067 0.646281
H 18.399 19.4799 1.87145
H 19.7447 18.3523 1.94968
H 19.6005 19.4815 0.633311
H 18.3765 18.4028 3.19429
H 18.3505 19.5353 4.50724
H 19.6847 18.2237 4.46647
H 19.6 19.6322 3.15475
H 18.2402 18.4096 5.6986
H 18.3394 19.5728 7.07093
H 19.5086 18.326 6.86785
H 19.5693 19.6397 5.72896
H 18.3549 18.3393 8.29205
H 18.308 19.5802 9.56474
H 19.539 18.3151 9.45327
H 19.7241 19.5399 8.20509
H 18.4507 18.3311 10.8803
H 18.431 19.6433 12.1261
H 19.6747 18.2876 11.9772
H 19.6559 19.7301 10.9193
H 18.4754 18.4039 13.1791
H 18.457 19.6149 14.6622
H 19.6648 18.2888 14.3744
H 19.7929 19.582 13.4292
H 18.4112 18.5571 15.7963
H 18.3963 19.734 17.1938
H 19.5293 18.3523 17.1885
H 19.6804 19.7146 15.8754
H 18.3911 18.0894 18.4818
H 18.2895 19.5364 19.7787
H 19.573 18.3023 19.5677
H 19.531 19.6956 18.4797
H 18.3816 18.4197 20.8845
H 18.3345 19.6183 22.2112
H 19.6936 18.4789 22.2189
H 19.5904 19.5904 20.9751
H 18.4981 20.8787 0.603416
H 18.3121 22.2657 1.82238
H 19.5857 20.9075 1.71922
H 19.7543 22.1795 0.55216
H 18.3045 20.8811 3.15069
H 18.5224 22.0962 4.51593
H 19.6938 20.8167 4.55691
H 19.6137 21.9996 3.16362
H 18.3471 20.8038 5.70196
H 18.491 22.1806 6.88347
H 19.6729 20.9467 7.04645
H 19.8379 22.0517 5.78736
H 18.3569 20.7923 8.32987
H 18.5145 22.1084 9.61667
H 19.7707 20.8721 9.58774
H 19.5527 22.139 8.25517
H 18.3557 20.7539 10.9575
H 18.2582 22.1451 12.0914
H 19.7706 20.9159 12.0487
H 19.5507 22.0981 10.7584
H 18.2026 20.9443 13.4699
H 18.3818 22.1863 14.5605
H 19.5803 20.9847 14.6509
H 19.6978 22.1014 13.1918
H 18.3433 20.7975 15.749
H 18.3575 22.16 17.0137
H 19.5536 21.0146 17.1201
H 19.728 22.2082 15.9068
H 18.4208 20.9122 18.5084
H 18.2626 22.2518 19.7047
H 19.5168 20.8534 19.758
H 19.6661 22.1882 18.49
H 18.4477 21.1118 20.9847
H 18.4543 22.2729 22.2357
H 19.6543 20.9514 22.3407
H 19.7764 22.2458 20.8571
H 20.8635 0.64035 0.681205
H 20.7547 1.83397 1.92432
H 22.0175 0.527851 1.89303
H 21.9997 2.01825 0.728806
H 20.8973 0.573543 3.21414
H 21.0086 1.79471 4.39851
H 22.1335 0.497388 4.28719
H 22.3132 1.96355 3.21785
H 21.0906 0.517772 5.57938
H 20.8921 1.93179 7.06007
H 22.1925 0.768597 6.87003
H 22.0499 1.98312 5.69322
H 20.9389 0.68095 8.33496
H 21.0133 1.95158 9.51171
H 22.1975 0.602489 9.51849
H 22.24 1.93753 8.23716
H 20.928 0.621736 10.8367
H 20.8984 1.73484 12.0266
H 22.2565 0.635704 11.9214
H 22.2961 1.99796 10.7279
H 20.9224 0.698826 13.3531
H 20.7987 1.94385 14.6679
H 22.2886 0.723409 14.6176
H 22.0045 1.92866 13.4125
H 20.935 0.748173 15.8091
H 20.7659 2.03271 17.2392
H 22.1014 0.739184 17.1866
H 22.0989 1.95017 15.9685
H 20.8709 0.612729 18.3143
H 20.9481 2.05388 19.617
H 22.1579 0.727095 19.5069
H 22.3517 1.92813 18.4398
H 20.8595 0.770948 20.8575
H 20.8623 1.89958 22.2653
H 22.13 0.667495 22.0296
H 22.0894 2.07608 20.9819
H 20.7593 3.26667 0.560395
H 20.813 4.51012 1.96278
H 22.047 3.19749 1.95602
H 21.9954 4.50763 0.74137
H 20.8473 3.19606 3.17853
H 20.9125 4.48311 4.36709
H 22.2031 3.16512 4.43231
H 22.2164 4.29262 3.09092
H 20.8586 3.17883 5.68932
H 20.9498 4.52487 6.88906
H 22.1598 3.22635 6.95239
H 22.3228 4.4238 5.68695
H 20.9606 3.17927 8.27536
H 20.9578 4.39681 9.40844
H 22.3097 3.21868 9.46343
H 22.172 4.32084 8.00867
H 20.9572 3.34987 10.5687
H 20.9014 4.39937 11.8778
H 22.15 3.1728 12.0069
H 22.3387 4.37531 10.6502
H 20.91 3.13463 13.3228
H 20.8536 4.41376 14.492
H 22.1015 3.28097 14.6183
H 22.2844 4.41612 13.2164
H 20.9123 3.18744 15.8256
H 20.7966 4.46622 17.1423
H 22.1997 3.24887 17.2502
H 22.1096 4.35791 15.78
H 20.7293 3.3106 18.5382
H 20.9658 4.56227 19.7928
H 22.2464 3.16986 19.8679
H 22.2011 4.33562 18.302
H 20.9718 3.29183 20.9902
H 20.8326 4.38741 22.2118
H 22.1592 3.24626 22.2415
H 22.2639 4.50809 20.9303
H 20.665 5.63976 0.613408
H 20.8925 6.93198 1.85253
H 22.1048 5.7073 1.81848
H 22.061 7.0824 0.687737
H 20.9785 5.7323 3.08725
H 20.8357 6.88692 4.36685
H 22.1662 5.63262 4.46098
H 22.2278 6.82031 3.07162
H 20.9495 5.55006 5.66914
H 20.9941 6.96369 6.96552
H 22.2239 5.71108 6.9584
H 22.2011 6.86571 5.72198
H 21.1635 5.73424 8.28023
H 21.0519 6.96941 9.44379
H 22.3124 5.59613 9.42218
H 22.1913 7.15828 8.17446
H 21.2111 5.72456 10.7045
H 20.8758 7.00158 11.9652
H 22.2792 5.73145 11.934
H 22.2984 7.03829 10.7571
H 20.9815 5.64445 13.2921
H 20.9799 6.84373 14.4643
H 22.3269 5.65037 14.542
H 22.1038 6.89726 13.2394
H 21.146 5.5222 15.7462
H 20.8778 6.91576 17.0731
H 22.117 5.6451 17.1829
H 22.2392 6.79493 15.8168
H 20.9888 5.63507 18.3456
H 20.9108 7.00448 19.5316
H 22.1839 5.66903 19.5946
H 22.2092 6.94257 18.3342
H 20.8614 5.80833 20.9201
H 20.9625 6.9489 22.2892
H 22.0708 5.58595 22.1954
H 22.1061 7.04483 21.0802
H 20.7063 8.20346 0.769894
H 20.9807 9.54031 1.89409
H 22.1231 8.24554 1.86758
H 22.1104 9.37399 0.595401
H 20.9642 8.31939 3.07252
H 21.0912 9.6599 4.5039
H 22.1793 8.21022 4.38395
H 22.1221 9.54879 3.17918
H 20.9648 8.23794 5.72603
H 20.9359 9.54566 6.94036
H 22.2702 8.19812 6.89043
H 22.3793 9.46556 5.8223
H 20.9462 8.25742 8.24
H 20.9235 9.51663 9.41863
H 22.2796 8.25869 9.64762
H 22.3647 9.49474 8.21808
H 20.9006 8.29042 10.9152
H 20.8499 9.5695 12.0048
H 22.2753 8.11753 11.936
H 22.1861 9.5241 10.6542
H 21.0187 8.26804 13.2144
H 20.8997 9.57306 14.5648
H 22.1913 8.27209 14.5457
H 22.1741 9.57454 13.29
H 20.9499 8.16705 15.8145
H 20.9491 9.49801 17.1228
H 22.175 8.38584 17.1675
H 22.2225 9.53092 15.785
H 20.7219 8.223 18.4333
H 20.9233 9.36113 19.8031
H 22.1539 8.20388 19.8437
H 22.2224 9.23562 18.4404
H 20.8432 8.19181 20.8793
H 20.8392 9.49007 22.1913
H 22.0999 8.34516 22.1249
H 22.1477 9.4419 20.864
H 20.9361 10.7653 0.685283
H 20.8642 11.95 1.84488
H 22.2534 10.8335 1.88641
H 22.2179 12.1114 0.515056
H 20.992 10.841 3.2965
H 20.9325 12.1547 4.51736
H 22.216 10.869 4.57355
H 22.2154 11.9875 3.10867
H 20.9152 10.8861 5.68336
H 20.9699 12.0267 7.06466
H 22.3016 10.9953 6.98955
H 22.1646 12.1288 5.68517
H 20.9963 10.7181 8.17238
H 20.8336 12.1981 9.44816
H 22.2342 10.8087 9.39384
H 22.1393 11.9925 8.10673
H 20.9386 10.7513 10.7932
H 20.9115 12.0793 11.9815
H 22.1815 10.9004 11.951
H 22.23 12.0162 10.602
H 20.8655 10.7732 13.3361
H 20.8523 12.0336 14.7333
H 22.2314 10.7925 14.5147
H 22.1739 12.0191 13.3975
H 21.0608 10.613 15.7585
H 20.8546 11.9156 17.0712
H 22.2846 10.8878 17.1485
H 22.1869 11.964 15.8324
H 21.0304 10.6836 18.3981
H 20.7797 12.0964 19.6214
H 22.1686 10.6983 19.6739
H 22.1583 11.9849 18.4572
H 20.8213 10.7961 20.9023
H 20.9358 12.0754 22.2253
H 22.0475 10.7087 22.1312
H 22.176 12.1225 20.8527
H 21.027 13.3771 0.79278
H 21.0817 14.6565 1.88503
H 22.2649 13.4051 1.93003
H 22.201 14.7834 0.579746
H 20.9951 13.3945 3.11663
H 20.9938 14.6352 4.47512
H 22.1888 13.4298 4.35039
H 22.2898 14.5515 3.1722
H 20.9623 13.4172 5.86275
H 20.8769 14.6863 6.94223
H 22.2835 13.3817 6.98056
H 22.2149 14.6079 5.55632
H 20.867 13.3142 8.34009
H 20.9465 14.5223 9.53879
H 22.19 13.2214 9.35508
H 22.1734 14.7123 8.15179
H 20.853 13.2485 10.8561
H 20.906 14.7141 12.0385
H 22.1965 13.2226 12.2385
H 22.1511 14.5864 10.8579
H 20.9346 13.3282 13.3394
H 21.0619 14.4726 14.5417
H 22.3243 13.1741 14.7077
H 22.1053 14.5409 13.3272
H 20.87 13.2981 15.8348
H 20.9284 14.5566 17.0557
H 22.0951 13.2118 17.101
H 22.1718 14.6366 15.829
H 20.9784 13.2259 18.3898
H 20.8068 14.43 19.6524
H 22.0926 13.1837 19.6542
H 22.145 14.6592 18.2784
H 20.8409 13.2808 20.8666
H 20.8616 14.4463 22.2598
H 22.0415 13.4352 22.1511
H 22.0157 14.6128 20.9045
H 20.9113 15.9725 0.623831
H 20.7222 16.9407 1.93722
H 22.1761 15.8201 1.90398
H 22.224 17.0165 0.474118
H 20.8736 15.8216 3.20055
H 21.0215 17.2046 4.51913
H 22.1246 16.0171 4.35656
H 22.1706 17.1894 3.23177
H 21.0119 15.8618 5.64883
H 20.9934 16.97 7.00364
H 22.395 15.8818 6.89439
H 22.1828 17.1457 5.68798
H 20.9997 15.8477 8.25597
H 20.96 17.2313 9.52109
H 22.1513 15.793 9.498
H 22.3127 17.095 8.31237
H 20.9226 15.838 10.7225
H 20.9605 17.0859 11.9439
H 22.185 15.8407 12.1002
H 22.2597 17.0084 10.7263
H 20.7715 15.7636 13.2334
H 20.8422 17.062 14.6495
H 22.105 15.9816 14.573
H 22.229 17.1586 13.4318
H 20.7971 15.917 15.6041
H 20.6276 17.0333 17.0227
H 22.01 15.7922 16.9443
H 22.0614 17.0673 15.9152
H 20.8625 15.8526 18.4331
H 20.8666 17.2417 19.6304
H 22.195 15.7341 19.6793
H 22.123 17.0883 18.5121
H 20.8592 15.7878 20.7981
H 20.7487 17.0887 22.0925
H 22.1036 15.9353 22.013
H 22.0658 17.1254 20.7857
H 20.8033 18.3826 0.550496
H 20.9084 19.6162 1.88541
H 22.1454 18.4552 1.87789
H 21.9701 19.6503 0.487416
H 20.9173 18.1844 3.19514
H 20.9601 19.5648 4.40148
H 22.2588 18.4667 4.42826
H 22.1381 19.5853 3.08728
H 20.9727 18.3492 5.87043
H 20.9902 19.5813 6.94964
H 22.3594 18.3397 6.92892
H 22.2254 19.5797 5.73276
H 20.7928 18.3434 8.16187
H 20.9963 19.6303 9.54792
H 22.2484 18.3742 9.34322
H 22.0872 19.6089 8.1369
H 20.9387 18.4205 10.632
H 20.9257 19.6079 12.0256
H 22.1862 18.3409 12.1269
H 22.2959 19.561 10.772
H 20.8275 18.3422 13.3544
H 20.9779 19.6319 14.6057
H 22.1735 18.3398 14.6762
H 22.0797 19.5872 13.3967
H 20.9513 18.3422 15.8266
H 20.7249 19.5034 17.2617
H 22.0597 18.3465 17.2627
H 22.0946 19.6913 15.9854
H 20.8563 18.4996 18.344
H 20.8672 19.6676 19.5785
H 22.2521 18.3878 19.5444
H 22.1879 19.6278 18.3671
H 20.8887 18.445 20.9098
H 20.7822 19.6014 22.1072
H 22.0938 18.3314 22.2076
H 22.1576 19.5924 20.856
H 20.9014 20.812 0.682435
H 20.8939 22.0926 1.99517
H 22.1339 20.9329 1.95518
H 22.1689 22.2848 0.558972
H 20.695 20.883 3.25289
H 20.7784 22.1549 4.35505
H 21.9943 20.884 4.4463
H 22.1197 22.1294 3.09566
H 20.9734 20.7628 5.80264
H 21.0555 22.408 7.10398
H 22.1971 20.8902 7.08919
H 22.1343 22.1523 5.68036
H 20.9103 20.8031 8.30904
H 20.8749 22.1557 9.53973
H 22.2465 20.9661 9.47658
H 21.9722 22.3233 8.31588
H 21.054 20.983 10.8093
H 20.907 22.3323 12.0427
H 22.246 20.85 12.0677
H 22.235 22.209 10.8761
H 20.9692 20.8296 13.196
H 20.9373 22.2277 14.7033
H 22.1715 20.9112 14.5701
H 22.2932 22.1335 13.4449
H 20.8085 20.8994 15.8527
H 20.8929 22.164 17.1175
H 22.202 21.0207 17.1182
H 22.0089 22.1603 15.8492
H 20.8478 20.905 18.3598
H 20.8897 22.2655 19.5866
H 22.2319 20.9655 19.6686
H 22.1136 22.1789 18.3362
H 20.9857 21.0448 20.9484
H 20.8993 22.3611 22.219
H 22.0524 20.9303 22.2254
H 22.1277 22.2284 20.8273
O 22.7646 0.0648278 22.7481
O 1.19702 1.30995 1.24335
O 22.7846 22.7959 2.51323
O 1.2639 1.19279 3.72877
O 22.7988 22.8059 5.03211
O 1.20876 1.25462 6.33132
O 22.7195 0.0682889 7.63385
O 1.34171 1.18518 8.8394
O 0.0309653 22.727 10.1441
O 1.2313 1.22457 11.4517
O 0.0571686 22.7974 12.7389
O 1.27475 1.297 13.9488
O 0.0164339 0.0238081 15.2241
O 1.16092 1.36292 16.4607
O 22.7307 0.0475324 17.6527
O 1.20267 1.21456 19.0275
O 22.752 0.0817132 20.2905
O 1.26176 1.22042 21.5317
O 22.7415 2.62879 0.0260205
O 1.35202 3.75799 1.27169
O 22.6912 2.57565 2.49262
O 1.26777 3.76711 3.7445
O 22.7627 2.52614 5.02654
O 1.33803 3.75779 6.26661
O 0.00503039 2.57475 7.6216
O 1.28403 3.85675 8.79791
O 0.1359 2.52918 10.143
O 1.35711 3.85971 11.4381
O 0.0136851 2.57353 12.7104
O 1.32749 3.76091 13.9913
O 22.7004 2.57286 15.1272
O 1.27535 3.81585 16.4347
O 0.0845234 2.66003 17.7996
O 1.24483 3.8847 19.1086
O 0.00912597 2.51697 20.3578
O 1.24501 3.91001 21.4914
O 22.7646 5.08125 22.7889
O 1.24071 6.3625 1.27419
O 0.0490589 5.06227 2.37533
O 1.25755 6.28276 3.71265
O 0.0147904 5.00789 5.03835
O 1.3192 6.32575 6.33784
O 0.0161929 4.95772 7.47147
O 1.34486 6.33265 8.82697
O 0.0646936 5.07731 10.2307
O 1.35995 6.40934 11.4472
O 0.0408173 5.08621 12.6052
O 1.23598 6.40703 13.8645
O 0.0427968 4.99235 15.1683
O 1.19487 6.33498 16.4498
O 0.038448 5.07719 17.8253
O 1.31172 6.3947 19.0463
O 22.7859 5.19543 20.2773
O 1.19716 6.44123 21.5227
O 22.6884 7.61117 0.0427783
O 1.21118 8.8558 1.28279
O 22.7708 7.54773 2.50505
O 1.23857 8.88123 3.72057
O 22.7809 7.59699 5.17045
O 1.37532 8.90437 6.29312
O 0.123258 7.58797 7.59465
O 1.36032 8.89802 8.79603
O 0.13048 7.59551 10.1457
O 1.33011 8.9439 11.3747
O 22.8007 7.63616 12.6495
O 1.29684 8.90583 13.912
O 22.8162 7.61323 15.2057
O 1.25498 8.83923 16.4452
O 22.7726 7.62954 17.7066
O 1.27225 8.85203 19.0296
O 22.8057 7.63321 20.3278
O 1.25617 8.85226 21.5506
O 22.7699 10.0259 0.0741635
O 1.21091 11.4638 1.23264
O 22.7639 10.2275 2.56832
O 1.24734 11.4809 3.76771
O 0.000430486 10.1872 5.05854
O 1.30036 11.4479 6.27654
O 0.0517495 10.1516 7.55606
O 1.37134 11.4452 8.82858
O 0.0310715 10.158 10.1157
O 1.35738 11.4213 11.3938
O 0.111791 10.1892 12.6022
O 1.37864 11.3947 13.9535
O 0.0638214 10.1158 15.1429
O 1.23299 11.3615 16.5233
O 22.7717 10.0265 17.8023
O 1.22508 11.3248 19.0409
O 22.8121 10.0843 20.2775
O 1.11234 11.3527 21.5731
O 22.7972 12.7647 22.7832
O 1.28482 13.9831 1.23598
O 22.7815 12.7815 2.49231
O 1.27879 13.928 3.71121
O 22.8114 12.7368 5.05332
O 1.29414 13.9988 6.32254
O 0.0266732 12.7671 7.59322
O 1.30408 13.9686 8.81645
O 0.041436 12.6358 10.089
O 1.19619 13.9324 11.3589
O 0.0695264 12.6635 12.7059
O 1.29304 14.0126 13.9886
O 0.092045 12.5339 15.2223
O 1.17196 13.8877 16.5624
O 22.727 12.6515 17.8263
O 1.2002 13.8969 18.9894
O 22.8105 12.661 20.3005
O 1.22596 13.9906 21.5371
O 22.7617 15.246 22.7454
O 1.28356 16.4991 1.13043
O 0.021086 15.2493 2.55358
O 1.27392 16.5595 3.71003
O 0.035581 15.2659 4.96484
O 1.34585 16.498 6.15827
O 0.082066 15.2027 7.61757
O 1.35934 16.4726 8.80807
O 22.7848 15.1379 10.0624
O 1.17367 16.4317 11.3424
O 22.7831 15.1176 12.7507
O 1.22701 16.4711 13.9414
O 22.7829 15.3027 15.2384
O 1.22288 16.451 16.5299
O 22.7021 15.2381 17.6584
O 1.2848 16.4692 19.0283
O 22.7625 15.1108 20.3355
O 1.2422 16.4564 21.4652
O 22.8037 17.8022 22.6993
O 1.26381 19.0465 1.20731
O 22.8017 17.7634 2.43361
O 1.19251 19.0678 3.67243
O 0.0442403 17.7657 5.09636
O 1.32628 19.0461 6.32418
O 0.0940304 17.6546 7.54712
O 1.22397 18.9978 8.92074
O 0.00645 17.7094 9.98507
O 1.23755 19.0223 11.3618
O 22.8005 17.6735 12.7823
O 1.32414 18.9942 14.0057
O 22.7409 17.6931 15.2194
O 1.24548 18.9865 16.498
O 0.00297222 17.7132 17.8043
O 1.24465 19.0201 19.0748
O 22.8 17.7823 20.2446
O 1.23748 19.0205 21.5311
O 22.735 20.21 22.7745
O 1.1482 21.5802 1.19268
O 22.7716 20.2845 2.51651
O 1.25212 21.5644 3.73782
O 0.0010352 20.2482 5.02244
O 1.14862 21.6395 6.34099
O 0.0580047 20.2935 7.61384
O 1.32187 21.5764 8.81045
O 0.0201586 20.2874 10.099
O 1.24492 21.4815 11.4231
O 22.799 20.3006 12.7433
O 1.39903 21.56 13.9829
O 22.8029 20.3285 15.2288
O 1.27462 21.6647 16.4199
O 0.0302235 20.2686 17.7317
O 1.17173 21.6277 19.027
O 22.769 20.2345 20.2481
O 1.18418 21.5384 21.5013
O 2.55134 0.0241733 0.0123095
O 3.76814 1.19674 1.28135
O 2.51714 22.8078 2.40424
O 3.83023 1.18605 3.68515
O 2.53983 0.000400087 5.06673
O 3.87793 1.19663 6.2582
O 2.66008 22.8141 7.55959
O 3.81886 1.29235 8.90012
O 2.53787 22.7707 10.1859
O 3.84402 1.25187 11.3901
O 2.5357 22.7923 12.608
O 3.80726 1.27375 13.9698
O 2.55017 0.128233 15.142
O 3.83921 1.23812 16.5669
O 2.48994 0.0266606 17.7356
O 3.77449 1.28828 18.984
O 2.50754 0.0189248 20.3727
O 3.83949 1.31739 21.503
O 2.46644 2.61178 22.6727
O 3.76373 3.76847 1.23356
O 2.41538 2.52345 2.53857
O 3.81137 3.73023 3.72673
O 2.57832 2.42908 4.99769
O 3.84963 3.83623 6.24871
O 2.6706 2.54954 7.55768
O 3.75487 3.86261 8.88
O 2.49773 2.49722 10.0726
O 3.73418 3.76883 11.3841
O 2.54863 2.4775 12.6425
O 3.8134 3.81506 13.9174
O 2.56906 2.47671 15.2734
O 3.72335 3.88659 16.4349
O 2.46468 2.53099 17.7819
O 3.75511 3.75771 19.0125
O 2.50461 2.47641 20.2475
O 3.75543 3.85055 21.5287
O 2.59694 5.13019 0.00567895
O 3.79889 6.40245 1.30544
O 2.56876 5.08398 2.52902
O 3.85532 6.36873 3.86334
O 2.61222 4.99349 4.99539
O 3.88228 6.31865 6.31322
O 2.4641 5.0677 7.60378
O 3.83929 6.30546 8.8505
O 2.59049 5.12482 10.2194
O 3.88334 6.4366 11.37
O 2.5964 5.05651 12.6896
O 3.76927 6.40446 13.8699
O 2.43664 5.22538 15.1921
O 3.79199 6.35259 16.5481
O 2.48849 5.12321 17.7512
O 3.89456 6.24198 19.0113
O 2.55514 5.19259 20.2511
O 3.91462 6.30504 21.5927
O 2.56319 7.57922 22.7622
O 3.78281 8.82589 1.30407
O 2.58431 7.66213 2.54558
O 3.90856 8.88118 3.74443
O 2.57461 7.64262 5.00381
O 3.82352 8.84652 6.28751
O 2.62542 7.58897 7.62001
O 3.83019 8.8951 8.82096
O 2.62678 7.54172 10.0979
O 3.81997 8.93439 11.3179
O 2.52075 7.61904 12.6516
O 3.82621 8.81456 13.9241
O 2.56291 7.57391 15.2581
O 3.79437 8.90058 16.5287
O 2.52387 7.58058 17.7198
O 3.8114 8.92393 18.958
O 2.59341 7.57692 20.2913
O 3.7575 8.97784 21.5556
O 2.4041 10.1962 22.7842
O 3.7721 11.3552 1.25099
O 2.57632 10.1572 2.54404
O 3.8453 11.4356 3.83696
O 2.57541 10.1414 4.96258
O 3.83363 11.4388 6.21715
O 2.69328 10.1883 7.49268
O 3.91014 11.4633 8.81862
O 2.619 10.1971 10.0944
O 3.81564 11.4947 11.3936
O 2.56067 10.0912 12.6142
O 3.79018 11.466 13.8792
O 2.56112 10.039 15.1899
O 3.74563 11.3461 16.5144
O 2.51267 10.1199 17.8341
O 3.7092 11.4733 19.0763
O 2.50483 10.1931 20.3319
O 3.8024 11.3692 21.5232
O 2.45877 12.6738 22.7096
O 3.76546 13.9387 1.16845
O 2.5818 12.6974 2.51447
O 3.81251 13.9325 3.74623
O 2.57914 12.6911 5.02842
O 3.84754 13.9859 6.30043
O 2.61697 12.6641 7.49259
O 3.76777 14.0073 8.82775
O 2.49559 12.6669 10.1199
O 3.72712 13.9797 11.4184
O 2.47416 12.7435 12.6455
O 3.77279 13.9524 13.8609
O 2.54122 12.6876 15.2487
O 3.77308 13.9937 16.5624
O 2.45273 12.6686 17.8065
O 3.75616 13.8882 18.9785
O 2.44433 12.6346 20.2979
O 3.79028 13.8286 21.5696
O 2.56565 15.2118 22.7565
O 3.84421 16.4724 1.19288
O 2.54543 15.2863 2.42045
O 3.81655 16.4719 3.74177
O 2.51643 15.2258 4.94638
O 3.78845 16.5708 6.15123
O 2.60313 15.2838 7.5599
O 3.78569 16.5185 8.89083
O 2.50811 15.2307 10.2004
O 3.82723 16.4918 11.4279
O 2.48788 15.2028 12.6477
O 3.71726 16.4793 13.9475
O 2.48232 15.1098 15.2486
O 3.76902 16.4466 16.5757
O 2.48251 15.218 17.7934
O 3.7849 16.4549 19.0586
O 2.53243 15.1474 20.2589
O 3.75359 16.4547 21.4567
O 2.46934 17.7328 22.7561
O 3.80795 19.0476 1.10307
O 2.60554 17.7722 2.42679
O 3.75828 19.0701 3.72892
O 2.57934 17.8119 4.89937
O 3.70933 19.0061 6.28265
O 2.62529 17.732 7.61256
O 3.76506 19.083 8.92048
O 2.55993 17.771 10.1385
O 3.80326 18.9419 11.4207
O 2.5058 17.7274 12.643
O 3.85498 19.0202 13.9199
O 2.54549 17.7175 15.3033
O 3.74435 19.1041 16.6355
O 2.47058 17.7569 17.8316
O 3.76081 19.1176 18.9343
O 2.51069 17.7982 20.269
O 3.69816 19.0912 21.5744
O 2.49836 20.3706 22.7647
O 3.93745 21.5501 1.29171
O 2.47724 20.2998 2.46986
O 3.90062 21.5878 3.74215
O 2.46139 20.3403 4.99877
O 3.84701 21.4622 6.24323
O 2.46906 20.3426 7.58388
O 3.79898 21.5609 8.8336
O 2.59975 20.409 10.2106
O 3.88541 21.6378 11.4138
O 2.6137 20.3328 12.693
O 3.87533 21.6091 13.9221
O 2.58984 20.3355 15.3005
O 3.74991 21.5335 16.6368
O 2.37527 20.3692 17.8215
O 3.80896 21.5891 19.0162
O 2.52603 20.3802 20.2759
O 3.84746 21.5267 21.5351
O 5.04533 22.7643 22.7833
O 6.40331 1.25399 1.20202
O 5.20592 22.8121 2.54184
O 6.42542 1.25479 3.79045
O 5.12415 0.0211968 5.0705
O 6.32916 1.32993 6.33542
O 5.18134 0.00434896 7.60021
O 6.3981 1.29256 8.83303
O 5.14317 0.0604531 10.0632
O 6.3356 1.37735 11.3839
O 5.06628 0.0489966 12.7095
O 6.30521 1.32125 13.9827
O 5.03145 0.0511344 15.3108
O 6.30439 1.28635 16.5224
O 5.1421 0.0740321 17.8657
O 6.44963 1.35015 19.0957
O 5.03159 0.0246008 20.27
O 6.31343 1.26858 21.5939
O 5.07146 2.5481 0.0441814
O 6.32184 3.76975 1.28404
O 5.07562 2.48885 2.50138
O 6.32388 3.8005 3.70706
O 5.16353 2.58206 5.08296
O 6.42367 3.89419 6.31069
O 5.02169 2.60107 7.56035
O 6.27649 3.75856 8.86946
O 5.08879 2.51223 10.0426
O 6.28326 3.81155 11.3407
O 5.04987 2.52652 12.6305
O 6.31713 3.81155 13.9073
O 5.0215 2.56192 15.2005
O 6.30209 3.79439 16.3691
O 5.05796 2.65124 17.8146
O 6.43725 3.76682 19.0455
O 5.09152 2.63004 20.3146
O 6.37281 3.81168 21.6255
O 5.10201 5.02621 0.019296
O 6.35246 6.2866 1.23647
O 5.04693 5.05236 2.50661
O 6.30944 6.33834 3.74659
O 5.17926 5.02656 5.0191
O 6.30617 6.40487 6.31357
O 5.02196 5.10346 7.56285
O 6.38977 6.32258 8.80562
O 5.09442 5.07949 10.1199
O 6.33973 6.31445 11.435
O 5.0332 5.03608 12.6357
O 6.21274 6.29865 13.8599
O 5.02105 5.14525 15.1924
O 6.40511 6.36136 16.4344
O 5.15288 5.03503 17.7026
O 6.28313 6.42308 19.0208
O 5.20231 5.06469 20.3325
O 6.36261 6.4274 21.5524
O 5.02793 7.62529 0.0296317
O 6.41315 8.8622 1.24831
O 5.19847 7.6293 2.56552
O 6.43445 8.93733 3.87011
O 5.16881 7.64236 5.13646
O 6.3619 8.89351 6.40319
O 5.09257 7.6496 7.6513
O 6.3835 8.88296 8.8889
O 5.10574 7.58885 10.0694
O 6.34451 8.89718 11.3325
O 5.13516 7.69393 12.5757
O 6.2892 8.89464 13.9747
O 5.02152 7.58887 15.2035
O 6.30508 8.90834 16.5013
O 5.09714 7.57227 17.7102
O 6.36178 8.92627 18.9651
O 5.04496 7.62719 20.2912
O 6.36654 8.90562 21.4871
O 5.13448 10.1367 0.0192293
O 6.40604 11.382 1.32824
O 5.14624 10.2025 2.50806
O 6.38852 11.4106 3.77725
O 5.10004 10.1799 5.07843
O 6.33996 11.3925 6.39649
O 5.11715 10.2184 7.56551
O 6.38803 11.4693 8.81651
O 5.09151 10.1977 10.0801
O 6.48966 11.452 11.4003
O 5.10249 10.2045 12.7119
O 6.19429 11.4316 14.0765
O 4.99292 10.1935 15.2094
O 6.27427 11.4059 16.4176
O 4.99445 10.1389 17.7745
O 6.27034 11.4495 19.0184
O 5.07734 10.2173 20.2276
O 6.30722 11.4718 21.5339
O 5.06875 12.637 0.0761682
O 6.42614 13.9034 1.19834
O 4.9988 12.646 2.48022
O 6.32159 13.9627 3.77557
O 5.16336 12.75 5.0148
O 6.37258 14.0375 6.31001
O 5.12173 12.7579 7.5676
O 6.35338 14.0451 8.86825
O 5.11059 12.7934 10.0797
O 6.33221 13.977 11.3813
O 5.06742 12.7105 12.5981
O 6.36661 13.9744 13.9378
O 4.92566 12.736 15.286
O 6.31992 13.9405 16.4734
O 5.04996 12.6671 17.8009
O 6.33186 13.8665 18.9688
O 4.96241 12.6469 20.2978
O 6.31028 13.9186 21.6516
O 5.0228 15.2199 22.7643
O 6.26419 16.542 1.17743
O 5.11825 15.2139 2.46501
O 6.27579 16.5734 3.78595
O 5.05693 15.2187 4.95918
O 6.36198 16.5 6.23215
O 4.98714 15.313 7.53539
O 6.4032 16.4999 8.9139
O 5.05967 15.235 10.1217
O 6.29977 16.4952 11.4198
O 5.10432 15.3593 12.6975
O 6.34606 16.5058 14.0856
O 4.99246 15.2091 15.2276
O 6.28387 16.4798 16.4991
O 5.10524 15.1957 17.8384
O 6.35322 16.5546 19.0752
O 5.04749 15.1611 20.2654
O 6.29395 16.5045 21.4368
O 5.06713 17.8087 22.7632
O 6.33857 19.0106 1.17519
O 4.99669 17.8166 2.49953
O 6.39106 18.9791 3.7571
O 5.06249 17.8801 5.0697
O 6.40913 19.0267 6.34493
O 5.07576 17.7349 7.50689
O 6.3222 19.0005 8.84419
O 5.07274 17.7446 10.084
O 6.33641 19.0661 11.38
O 5.13676 17.7324 12.7091
O 6.35393 19.0484 14.0807
O 4.99447 17.7946 15.3229
O 6.3226 19.0197 16.525
O 5.00648 17.7419 17.8487
O 6.28585 18.9775 19.0539
O 5.01264 17.7699 20.2637
O 6.32126 18.9927 21.5061
O 5.14788 20.3447 22.8096
O 6.42093 21.597 1.30311
O 5.12242 20.27 2.55084
O 6.312 21.5593 3.8087
O 5.11959 20.2201 4.99606
O 6.2863 21.4503 6.31698
O 5.03536 20.2309 7.58526
O 6.3424 21.4928 8.88876
O 5.03334 20.2911 10.1069
O 6.28785 21.5589 11.4291
O 5.07227 20.288 12.7072
O 6.30686 21.4953 14.0336
O 5.06566 20.2891 15.3002
O 6.34636 21.5333 16.593
O 5.1089 20.337 17.8472
O 6.35071 21.5892 19.1316
O 5.02192 20.3616 20.2519
O 6.39012 21.4738 21.5864
O 7.55762 22.7826 22.7487
O 8.80238 1.22939 1.21963
O 7.63173 22.7498 2.45296
O 8.8435 1.11607 3.8505
O 7.56921 22.7779 5.07119
O 8.92831 1.31212 6.34287
O 7.55684 0.0215423 7.5475
O 8.84599 1.20686 8.89585
O 7.66372 22.7638 10.1908
O 8.8712 1.16417 11.5145
O 7.42618 0.0359966 12.7048
O 8.89373 1.15978 13.9304
O 7.52233 0.0141031 15.2529
O 8.87713 1.2262 16.4664
O 7.53215 0.00442877 17.8064
O 8.90538 1.29286 18.9577
O 7.66549 22.7664 20.301
O 8.93028 1.23314 21.5581
O 7.68078 2.55023 22.7775
O 8.92961 3.75008 1.26305
O 7.67117 2.47536 2.48084
O 8.81235 3.71367 3.72473
O 7.58117 2.56668 5.03924
O 8.83957 3.78342 6.32807
O 7.71415 2.60254 7.60124
O 8.90209 3.81488 8.93548
O 7.64382 2.45932 10.1659
O 8.83095 3.73941 11.394
O 7.51222 2.51412 12.6448
O 8.84614 3.72418 14.0062
O 7.52829 2.43065 15.1002
O 8.77417 3.7423 16.2858
O 7.6243 2.59785 17.6495
O 8.87315 3.91497 19.0715
O 7.69612 2.52428 20.3513
O 8.90921 3.85039 21.4995
O 7.62771 5.08623 22.7727
O 8.81339 6.35049 1.38949
O 7.66888 5.00905 2.55509
O 8.90864 6.38364 3.81125
O 7.6447 5.08075 4.99265
O 8.86007 6.2641 6.3191
O 7.58912 5.01205 7.56311
O 8.8788 6.23799 8.90084
O 7.63039 5.06729 10.2541
O 8.83169 6.3979 11.5137
O 7.59438 5.00524 12.6532
O 8.80248 6.32335 13.867
O 7.54075 5.16564 15.1158
O 8.83118 6.31997 16.4654
O 7.64971 5.03986 17.6508
O 8.84143 6.34385 18.998
O 7.54736 5.11512 20.3202
O 8.85768 6.40568 21.4749
O 7.55794 7.59889 22.8072
O 8.84628 8.86112 1.30774
O 7.58344 7.58221 2.60504
O 8.92065 8.85772 3.75678
O 7.6668 7.6022 5.06828
O 8.92686 8.86519 6.33125
O 7.64309 7.61495 7.60287
O 8.87304 8.80748 8.96389
O 7.65889 7.57652 10.1954
O 8.86775 8.98119 11.466
O 7.50847 7.6613 12.6946
O 8.81484 8.91398 13.9751
O 7.49431 7.60109 15.1045
O 8.76333 8.82609 16.423
O 7.54517 7.60034 17.674
O 8.7683 8.88013 18.9596
O 7.60906 7.63631 20.2633
O 8.88581 8.87365 21.5573
O 7.59976 10.1882 22.7582
O 8.88489 11.3745 1.25828
O 7.6778 10.1241 2.58925
O 8.97313 11.4262 3.83066
O 7.59471 10.1162 5.09436
O 8.91738 11.3679 6.2783
O 7.65946 10.1243 7.63574
O 8.97709 11.4671 8.93273
O 7.63264 10.1395 10.083
O 8.85662 11.413 11.4371
O 7.51937 10.1179 12.7515
O 8.85445 11.3687 13.9633
O 7.53231 10.1391 15.2447
O 8.79588 11.4159 16.4958
O 7.6267 10.1457 17.7091
O 8.95056 11.384 19.0672
O 7.61726 10.2423 20.2715
O 8.93361 11.395 21.567
O 7.64543 12.6559 0.002819
O 8.85677 13.9549 1.26716
O 7.65147 12.6349 2.48342
O 8.80097 14.078 3.8365
O 7.59428 12.6678 5.07179
O 8.84828 14.0188 6.34376
O 7.64164 12.6996 7.60974
O 8.93772 13.9358 8.89676
O 7.64391 12.7945 10.0733
O 8.89048 13.9979 11.4367
O 7.59795 12.6834 12.7644
O 8.91801 13.931 13.9669
O 7.65037 12.626 15.2435
O 8.71393 13.9534 16.5247
O 7.53977 12.6673 17.7334
O 8.83711 13.9551 19.0421
O 7.67653 12.7031 20.3296
O 8.91628 13.9897 21.6126
O 7.58505 15.3173 22.7855
O 8.89431 16.4741 1.27092
O 7.53121 15.2646 2.4425
O 8.89362 16.5287 3.71932
O 7.57451 15.2686 5.0102
O 8.9291 16.5013 6.24712
O 7.59681 15.3584 7.58161
O 8.90902 16.5177 8.93186
O 7.73414 15.1944 10.1133
O 8.86894 16.5073 11.3832
O 7.5613 15.2185 12.7263
O 8.80011 16.5627 14.0337
O 7.63957 15.2444 15.2323
O 8.91689 16.5191 16.509
O 7.53395 15.246 17.8395
O 8.85816 16.4842 19.0852
O 7.56538 15.1175 20.3394
O 8.86594 16.4084 21.5468
O 7.59588 17.6781 22.8079
O 8.95153 18.9902 1.17491
O 7.62686 17.7876 2.44544
O 8.83517 19.0276 3.73908
O 7.69032 17.7024 5.04826
O 8.90784 18.9913 6.27983
O 7.63114 17.6848 7.59743
O 8.77046 18.9963 8.83101
O 7.62976 17.8201 10.095
O 8.89227 19.004 11.4736
O 7.56966 17.8057 12.6958
O 8.90866 19.0871 13.9668
O 7.6589 17.7933 15.2879
O 8.90601 18.9411 16.5666
O 7.57819 17.6825 17.776
O 8.88778 19.0308 18.9809
O 7.63625 17.7949 20.3228
O 8.99679 18.9576 21.5321
O 7.71605 20.2234 22.7597
O 8.95288 21.5341 1.1458
O 7.58641 20.2209 2.47386
O 8.84815 21.5346 3.73505
O 7.5676 20.338 5.09515
O 8.95506 21.631 6.24123
O 7.69388 20.283 7.5748
O 8.84465 21.5696 8.89487
O 7.60318 20.251 10.1795
O 8.81379 21.5212 11.4753
O 7.57748 20.2761 12.7792
O 8.84063 21.5868 13.9108
O 7.6512 20.2727 15.2425
O 8.84468 21.5633 16.5877
O 7.59546 20.2513 17.7782
O 8.91402 21.595 18.9873
O 7.64078 20.243 20.3234
O 8.88151 21.5578 21.556
O 10.209 22.813 22.8104
O 11.4713 1.29362 1.24737
O 10.2004 0.00546483 2.49994
O 11.3702 1.28371 3.75223
O 10.2381 0.0109434 5.08688
O 11.4022 1.30538 6.40302
O 10.1103 22.7692 7.65617
O 11.3338 1.29675 8.93076
O 10.1136 22.7464 10.1421
O 11.4243 1.16658 11.4606
O 10.2424 22.78 12.6896
O 11.5091 1.15864 13.9416
O 10.187 22.8009 15.238
O 11.4229 1.28419 16.468
O 10.1557 0.0358719 17.7674
O 11.4067 1.31618 19.0765
O 10.1335 0.00470337 20.3039
O 11.4182 1.26192 21.6122
O 10.1131 2.48203 0.0179013
O 11.3916 3.76021 1.3408
O 10.1192 2.50271 2.47695
O 11.3816 3.77295 3.79177
O 10.1059 2.58041 5.01908
O 11.4248 3.71527 6.28162
O 10.1658 2.5813 7.63075
O 11.4536 3.83217 8.99291
O 10.0743 2.53178 10.2235
O 11.3776 3.8157 11.4919
O 10.079 2.43075 12.7134
O 11.3468 3.79802 13.9809
O 10.1648 2.39201 15.1241
O 11.3627 3.75976 16.4445
O 10.0982 2.58356 17.6582
O 11.3305 3.73108 19.0297
O 10.0824 2.58505 20.2955
O 11.486 3.83587 21.5661
O 10.0578 5.14816 22.7731
O 11.283 6.28491 1.23244
O 10.158 5.07699 2.59455
O 11.3996 6.28201 3.79774
O 10.1692 5.03464 5.06765
O 11.3911 6.31901 6.32655
O 10.1663 5.05872 7.5357
O 11.3864 6.33619 8.90243
O 10.1304 5.04396 10.2207
O 11.3588 6.31765 11.4863
O 10.0498 5.12725 12.6923
O 11.3517 6.39347 13.9215
O 10.0507 5.09746 15.1934
O 11.2787 6.37017 16.4768
O 10.1147 5.04205 17.6473
O 11.3252 6.32277 18.9056
O 10.2079 5.08681 20.3313
O 11.4081 6.36314 21.5147
O 10.1464 7.53125 0.0699839
O 11.4012 8.86383 1.19154
O 10.1933 7.5703 2.4811
O 11.3646 8.8799 3.87584
O 10.2027 7.56513 5.07331
O 11.3748 8.81553 6.42289
O 10.1785 7.54917 7.62174
O 11.4784 8.8056 8.92896
O 10.0892 7.59116 10.2449
O 11.4234 8.84028 11.4413
O 10.1184 7.63648 12.7513
O 11.4382 8.92851 13.9588
O 10.1223 7.66901 15.1901
O 11.4368 8.88948 16.4466
O 10.0397 7.68272 17.7206
O 11.4589 8.90997 18.9295
O 10.1768 7.71147 20.2539
O 11.4393 8.84773 21.6918
O 10.056 10.1374 0.128773
O 11.4444 11.3589 1.39334
O 10.2082 10.0919 2.54605
O 11.4524 11.3471 3.89244
O 10.1336 10.0684 5.11965
O 11.2713 11.4137 6.31986
O 10.1117 10.103 7.66775
O 11.4373 11.4636 8.76354
O 10.2332 10.1952 10.1736
O 11.4944 11.3953 11.5433
O 10.1134 10.0938 12.7133
O 11.4636 11.3757 13.9359
O 10.1472 10.1675 15.2272
O 11.373 11.3429 16.4917
O 10.0953 10.103 17.686
O 11.4118 11.3178 18.9757
O 10.2017 10.0901 20.2791
O 11.4385 11.3564 21.6199
O 10.1567 12.6234 22.8151
O 11.4478 13.9858 1.23386
O 10.1648 12.7311 2.47708
O 11.3694 13.9357 3.80173
O 10.2123 12.7353 4.98567
O 11.384 14.0481 6.33447
O 10.0999 12.7088 7.60442
O 11.4784 13.9837 8.85686
O 10.1928 12.6682 10.2156
O 11.4701 14.0611 11.4006
O 10.0996 12.7429 12.6894
O 11.4008 13.9 13.9436
O 10.2254 12.6337 15.1996
O 11.3813 13.9711 16.4453
O 10.015 12.6232 17.6292
O 11.399 13.8934 18.9869
O 10.1726 12.7005 20.2935
O 11.4392 13.9334 21.593
O 10.1026 15.2768 0.0586583
O 11.5291 16.4986 1.41854
O 10.1418 15.2136 2.4794
O 11.4275 16.4585 3.81315
O 10.0985 15.1973 4.98542
O 11.3956 16.4173 6.30143
O 10.1128 15.2481 7.61965
O 11.3772 16.5197 8.77325
O 10.2165 15.2193 10.1358
O 11.3892 16.444 11.3818
O 10.1676 15.2641 12.7041
O 11.3919 16.4652 14.0374
O 10.0831 15.1947 15.1598
O 11.4127 16.4093 16.4904
O 10.0672 15.1919 17.7385
O 11.3717 16.4443 19.107
O 10.1215 15.1451 20.2594
O 11.3945 16.4771 21.5543
O 10.2916 17.7414 0.0529702
O 11.455 18.9427 1.27979
O 10.2048 17.7579 2.51045
O 11.4384 19.0955 3.76626
O 10.1605 17.8108 5.03319
O 11.3728 19.0599 6.39829
O 10.1468 17.7893 7.56011
O 11.3222 19.0728 8.96802
O 10.149 17.7559 10.0853
O 11.374 19.0141 11.4853
O 10.2437 17.6936 12.7421
O 11.4907 18.9942 13.9554
O 10.1456 17.7747 15.1854
O 11.4191 18.9997 16.566
O 10.2117 17.7013 17.7903
O 11.4427 18.9741 19.1074
O 10.1309 17.7452 20.2672
O 11.4672 18.929 21.5466
O 10.1956 20.2749 22.781
O 11.404 21.582 1.22373
O 10.1514 20.2522 2.50266
O 11.4192 21.5544 3.83217
O 10.0983 20.3203 5.05227
O 11.373 21.5569 6.3239
O 10.1398 20.3578 7.71403
O 11.4395 21.5777 8.98367
O 10.1121 20.3238 10.2504
O 11.5271 21.5157 11.4234
O 10.2029 20.3616 12.7193
O 11.4932 21.5382 14.0261
O 10.1475 20.2795 15.1728
O 11.3446 21.4973 16.43
O 10.1463 20.2997 17.7827
O 11.43 21.6281 19.0587
O 10.1508 20.2835 20.2847
O 11.4637 21.5327 21.5124
O 12.7928 0.0713534 22.7895
O 13.9234 1.23932 1.30691
O 12.6757 0.0111283 2.52602
O 13.9202 1.20268 3.85839
O 12.5895 0.0138402 5.05229
O 13.9729 1.28553 6.2905
O 12.6858 0.0205783 7.67594
O 13.972 1.26625 8.88745
O 12.7145 0.0813922 10.192
O 13.9722 1.21692 11.4724
O 12.6978 22.7732 12.8033
O 13.9678 1.30683 14.0375
O 12.7804 22.8153 15.3581
O 14.0053 1.39863 16.4649
O 12.6735 0.0429091 17.7494
O 13.9728 1.32966 18.9818
O 12.7634 0.029502 20.2538
O 14.0062 1.32857 21.507
O 12.6856 2.57835 22.8101
O 13.9783 3.88372 1.28909
O 12.75 2.55195 2.56245
O 13.9269 3.84053 3.79787
O 12.6742 2.51174 5.03291
O 13.9089 3.72996 6.33721
O 12.6944 2.49644 7.65217
O 13.8573 3.88766 8.98324
O 12.7075 2.48821 10.2393
O 13.9261 3.80816 11.4399
O 12.6926 2.49744 12.6794
O 13.8964 3.87834 13.9737
O 12.6579 2.59597 15.1875
O 13.8247 3.79199 16.4985
O 12.6344 2.52328 17.7567
O 13.9521 3.86815 19.007
O 12.6005 2.53287 20.3176
O 14.0304 3.79798 21.6075
O 12.6313 5.05971 22.8158
O 13.8688 6.34718 1.35897
O 12.7043 5.12265 2.57247
O 13.9911 6.25405 3.87277
O 12.6436 5.04011 5.13768
O 13.9398 6.27918 6.40205
O 12.6103 5.08981 7.59172
O 13.9615 6.27649 8.8784
O 12.5828 5.08896 10.2234
O 13.9231 6.26321 11.4431
O 12.6377 5.08689 12.6641
O 14.0215 6.32612 13.9399
O 12.605 5.08135 15.3061
O 13.9848 6.30952 16.4376
O 12.6196 5.07249 17.7744
O 13.9021 6.38732 19.0228
O 12.569 5.05969 20.1556
O 13.9403 6.39305 21.473
O 12.7033 7.54825 0.0688941
O 13.9102 8.79726 1.24992
O 12.6151 7.6386 2.54257
O 13.8833 8.78892 3.81122
O 12.6973 7.54547 5.11098
O 13.9834 8.81208 6.38211
O 12.701 7.49609 7.61919
O 13.9341 8.85523 8.77103
O 12.7001 7.50688 10.1482
O 13.9988 8.85611 11.3315
O 12.6914 7.60638 12.6916
O 14.0001 8.83179 13.9612
O 12.5938 7.58552 15.204
O 13.9897 8.80536 16.4203
O 12.6813 7.63284 17.6411
O 13.8652 8.84643 18.9518
O 12.644 7.7236 20.3057
O 13.8756 8.92371 21.5554
O 12.7112 10.1294 0.0288984
O 13.9366 11.3964 1.34066
O 12.6342 10.0245 2.59485
O 13.9082 11.3834 3.74811
O 12.6839 10.0482 5.15197
O 13.9109 11.3577 6.2716
O 12.5494 10.0995 7.52351
O 13.8111 11.3687 8.77924
O 12.6528 10.1241 10.1168
O 13.9397 11.3851 11.3605
O 12.7509 9.97435 12.6889
O 13.9465 11.4614 13.8702
O 12.7216 10.1158 15.2032
O 13.9479 11.4058 16.4191
O 12.7916 10.1136 17.7058
O 13.9671 11.3812 19.0234
O 12.6447 10.1049 20.3409
O 14.0078 11.3324 21.6335
O 12.7142 12.5589 0.0467539
O 13.9283 13.9653 1.25252
O 12.641 12.7169 2.53127
O 13.9399 13.9309 3.83908
O 12.5979 12.6607 5.05464
O 13.9179 13.9727 6.27401
O 12.7084 12.702 7.59536
O 13.838 13.8865 8.95813
O 12.661 12.6529 10.1534
O 13.9859 14.017 11.4311
O 12.7483 12.7112 12.6994
O 13.9472 13.9988 14.0153
O 12.6913 12.7257 15.2402
O 13.9972 13.9362 16.4518
O 12.5779 12.6414 17.7
O 13.9896 13.8783 18.97
O 12.6919 12.6245 20.32
O 13.9623 13.8112 21.5782
O 12.6944 15.1345 22.7114
O 13.9594 16.353 1.30523
O 12.7721 15.162 2.61043
O 13.8874 16.5045 3.85964
O 12.6362 15.1971 5.02019
O 13.9047 16.4289 6.36104
O 12.7115 15.219 7.54312
O 13.9165 16.506 8.8761
O 12.7367 15.3369 10.108
O 13.9045 16.4101 11.5173
O 12.6617 15.2166 12.7635
O 13.9633 16.4903 13.9307
O 12.6645 15.1927 15.2475
O 13.9495 16.4588 16.5157
O 12.7189 15.1961 17.7467
O 14.0273 16.4349 18.9907
O 12.6985 15.2061 20.2076
O 14.0092 16.3651 21.5035
O 12.7598 17.6508 22.7745
O 13.9896 19.0255 1.24736
O 12.7645 17.7985 2.5106
O 13.9739 19.0924 3.84108
O 12.605 17.8126 5.02298
O 13.917 19.0093 6.30548
O 12.6358 17.8262 7.6075
O 13.9166 18.9799 8.85719
O 12.6809 17.7742 10.1603
O 13.9346 19.0169 11.556
O 12.6191 17.6688 12.6929
O 13.8443 18.8844 13.9491
O 12.6136 17.7772 15.311
O 13.9585 18.9601 16.5016
O 12.6896 17.6997 17.8006
O 13.9968 18.9993 18.9903
O 12.7535 17.7688 20.2529
O 14.0054 18.9995 21.544
O 12.6739 20.3125 0.0216803
O 14.0017 21.6082 1.22805
O 12.6945 20.2246 2.44386
O 13.8755 21.4658 3.86929
O 12.6566 20.3057 5.13123
O 13.9454 21.5798 6.43678
O 12.6084 20.3407 7.66903
O 13.9447 21.5775 8.94024
O 12.7014 20.2665 10.2
O 13.9344 21.5065 11.497
O 12.7123 20.3324 12.7834
O 13.9281 21.5572 14.0398
O 12.6834 20.2339 15.3425
O 13.9318 21.5181 16.5997
O 12.6094 20.2696 17.7957
O 14.0606 21.475 18.9364
O 12.7461 20.3013 20.261
O 13.912 21.5099 21.5682
O 15.2038 0.115078 22.7967
O 16.4377 1.30202 1.38412
O 15.2423 22.7671 2.69414
O 16.5126 1.24993 3.83279
O 15.2329 22.7628 5.05399
O 16.514 1.23501 6.3088
O 15.1918 22.7676 7.59096
O 16.4641 1.23551 8.88378
O 15.153 22.7898 10.1561
O 16.4065 1.21449 11.4799
O 15.25 0.0270105 12.7462
O 16.5115 1.28549 14.0545
O 15.1704 0.0842384 15.3146
O 16.4538 1.32742 16.5309
O 15.2607 0.0645733 17.6824
O 16.448 1.2579 19.0475
O 15.1504 0.0376508 20.2251
O 16.428 1.29842 21.5308
O 15.2662 2.53257 0.137978
O 16.4325 3.80234 1.35107
O 15.1159 2.55281 2.61595
O 16.4916 3.84045 3.75898
O 15.2762 2.54994 5.03504
O 16.4941 3.72247 6.36049
O 15.1562 2.51239 7.57907
O 16.425 3.83811 8.82721
O 15.1507 2.508 10.1498
O 16.5091 3.74971 11.3891
O 15.2027 2.55017 12.8048
O 16.5266 3.82149 13.8748
O 15.2124 2.62992 15.1706
O 16.5759 3.82807 16.4423
O 15.2613 2.66179 17.772
O 16.4962 3.8355 19.1387
O 15.2219 2.60696 20.2918
O 16.3575 3.9567 21.5929
O 15.1826 5.21822 0.0189898
O 16.4851 6.33971 1.37981
O 15.2049 5.15951 2.56333
O 16.4478 6.31503 3.82386
O 15.2179 5.01682 5.10521
O 16.5061 6.29668 6.32721
O 15.1913 5.01464 7.63842
O 16.4644 6.2914 8.85121
O 15.2563 5.03242 10.1809
O 16.4875 6.40248 11.3299
O 15.2381 5.00799 12.6852
O 16.4829 6.33334 13.7464
O 15.2345 5.03756 15.2015
O 16.543 6.39011 16.4513
O 15.2225 5.01637 17.7246
O 16.465 6.29308 19.0485
O 15.2096 5.15112 20.2377
O 16.4342 6.42362 21.5844
O 15.149 7.62174 0.103533
O 16.4541 8.86617 1.3195
O 15.2188 7.65153 2.56475
O 16.4757 8.85713 3.86927
O 15.2186 7.5339 5.18339
O 16.3925 8.86789 6.39102
O 15.2066 7.57346 7.64046
O 16.5481 8.96138 8.86116
O 15.1653 7.53471 10.0681
O 16.4608 8.85652 11.2678
O 15.2291 7.62271 12.7108
O 16.4841 8.92357 13.9369
O 15.2529 7.57988 15.1764
O 16.4964 8.81342 16.4087
O 15.2047 7.53934 17.7832
O 16.4675 8.83283 19.0047
O 15.2321 7.66861 20.1819
O 16.4343 8.80771 21.4983
O 15.2687 10.1099 0.0466224
O 16.5181 11.3371 1.38455
O 15.1248 10.091 2.56893
O 16.5078 11.2783 3.82442
O 15.1519 10.1147 5.09122
O 16.4712 11.3663 6.40264
O 15.2377 10.2014 7.6024
O 16.5491 11.4294 8.93295
O 15.148 10.2042 10.0552
O 16.49 11.4748 11.3377
O 15.2857 10.164 12.6576
O 16.6056 11.4179 13.925
O 15.2171 10.1376 15.1077
O 16.5363 11.2552 16.4537
O 15.2004 10.0907 17.6611
O 16.4994 11.3381 18.9545
O 15.2593 10.1042 20.2527
O 16.5237 11.4072 21.5474
O 15.2681 12.6275 0.110673
O 16.5544 13.8532 1.28748
O 15.1761 12.6317 2.4615
O 16.4914 13.8478 3.67425
O 15.2337 12.6636 5.0301
O 16.5054 13.9217 6.36818
O 15.1889 12.6872 7.57691
O 16.4432 13.8436 8.92882
O 15.1782 12.6931 10.1105
O 16.4911 13.9533 11.3717
O 15.2548 12.6633 12.6908
O 16.5332 13.9447 13.961
O 15.2375 12.665 15.1421
O 16.5378 13.9124 16.4007
O 15.3214 12.6417 17.689
O 16.4946 13.8917 19.0412
O 15.2228 12.6569 20.2944
O 16.5272 13.836 21.565
O 15.2281 15.1512 22.7945
O 16.4815 16.4613 1.36417
O 15.232 15.1081 2.48451
O 16.4068 16.5379 3.7697
O 15.2669 15.2252 4.98877
O 16.3765 16.4507 6.44132
O 15.1393 15.1352 7.66338
O 16.4469 16.4324 8.91971
O 15.2145 15.2052 10.0779
O 16.4036 16.4565 11.3928
O 15.3402 15.1901 12.7369
O 16.4791 16.5125 13.9663
O 15.2804 15.2366 15.2446
O 16.5341 16.4947 16.4705
O 15.2274 15.1058 17.7196
O 16.4355 16.4397 18.9934
O 15.2604 15.1189 20.3364
O 16.4283 16.4942 21.5574
O 15.2069 17.7248 0.0127367
O 16.5063 18.9348 1.30912
O 15.1086 17.7368 2.58875
O 16.3785 19.1082 3.79999
O 15.1595 17.7717 5.08037
O 16.3837 19.0267 6.40888
O 15.1546 17.7406 7.57174
O 16.3935 18.9158 8.93566
O 15.0986 17.6673 10.2715
O 16.4295 19.0637 11.4443
O 15.2489 17.7572 12.6883
O 16.4843 18.972 13.9963
O 15.1401 17.726 15.2396
O 16.4749 18.9886 16.5151
O 15.1978 17.7957 17.8179
O 16.5027 18.9532 18.975
O 15.1899 17.691 20.2806
O 16.3853 19.0555 21.5837
O 15.2114 20.3543 22.8119
O 16.4823 21.6286 1.26783
O 15.2145 20.3384 2.4678
O 16.5018 21.4775 3.7496
O 15.2468 20.3404 5.18813
O 16.5749 21.5664 6.39532
O 15.1875 20.2935 7.66044
O 16.4741 21.54 8.87823
O 15.1915 20.2265 10.1504
O 16.4947 21.53 11.4766
O 15.2483 20.2742 12.7755
O 16.4837 21.625 14.0381
O 15.1957 20.2548 15.2353
O 16.4654 21.5258 16.4541
O 15.214 20.2263 17.7358
O 16.5039 21.5826 19.0242
O 15.2376 20.314 20.2712
O 16.4104 21.5848 21.5484
O 17.6671 0.0493145 22.6961
O 18.9538 1.22693 1.17094
O 17.7847 22.7858 2.59753
O 19.0155 1.30061 3.87812
O 17.7663 22.7438 5.10454
O 19.0545 1.28606 6.34867
O 17.7581 22.8117 7.5984
O 19.012 1.17479 8.96091
O 17.7301 22.8018 10.2127
O 19.1008 1.24264 11.4171
O 17.7715 0.0315061 12.7195
O 19.0299 1.30672 14.0211
O 17.7621 0.0117398 15.3106
O 18.9857 1.32002 16.5835
O 17.6939 22.7785 17.7008
O 18.942 1.24677 19.0561
O 17.6834 0.0341126 20.2916
O 18.9234 1.23466 21.5494
O 17.6543 2.52447 22.7511
O 18.8955 3.7822 1.24226
O 17.7693 2.49839 2.537
O 18.9305 3.75931 3.87308
O 17.6993 2.55914 5.10013
O 19.0361 3.81607 6.36696
O 17.7799 2.50448 7.65101
O 18.9837 3.81804 8.88814
O 17.6666 2.47469 10.2377
O 19.1534 3.74918 11.3962
O 17.7295 2.46976 12.6702
O 19.0149 3.83026 13.8335
O 17.7435 2.58171 15.2266
O 18.9305 3.84744 16.4818
O 17.7148 2.62498 17.8979
O 19.0597 3.94902 19.1652
O 17.7709 2.51885 20.2896
O 18.9181 3.86842 21.5611
O 17.7236 5.09995 0.0268917
O 18.9702 6.31922 1.28452
O 17.7812 5.11856 2.59852
O 19.0309 6.3354 3.92567
O 17.6716 5.02634 5.14262
O 19.0866 6.273 6.34875
O 17.7306 5.12246 7.60238
O 19.0253 6.26382 8.84927
O 17.7839 5.068 10.1194
O 19.0891 6.39203 11.342
O 17.8513 5.13284 12.5833
O 19.1372 6.38427 13.8825
O 17.7496 5.08926 15.1021
O 18.9278 6.43405 16.3818
O 17.6795 5.09823 17.8425
O 19.0403 6.32225 18.9525
O 17.7545 5.14218 20.4113
O 19.053 6.45201 21.6472
O 17.6055 7.59484 0.101388
O 19.0056 8.87896 1.23741
O 17.7497 7.62801 2.5463
O 19.0227 8.7898 3.9096
O 17.7185 7.56995 5.13618
O 19.1076 8.80569 6.33288
O 17.8448 7.57814 7.58972
O 19.075 8.84197 8.86622
O 17.7865 7.66691 10.1235
O 19.0383 8.8885 11.3761
O 17.7311 7.65867 12.5571
O 19.0655 8.85218 13.9298
O 17.7585 7.617 15.0657
O 19.0637 8.818 16.3886
O 17.7495 7.60981 17.7605
O 19.0328 8.86608 19.0047
O 17.6999 7.58726 20.2698
O 19.0373 8.86162 21.5023
O 17.7456 10.0465 22.8043
O 18.921 11.3652 1.305
O 17.7698 10.1355 2.64165
O 19.0678 11.3628 3.86946
O 17.737 10.0377 5.08586
O 19.047 11.4383 6.26876
O 17.8582 10.1502 7.56718
O 19.0089 11.4153 8.9311
O 17.9024 10.1804 10.1665
O 19.0388 11.4264 11.47
O 17.7709 10.146 12.5928
O 19.031 11.4408 13.8411
O 17.7747 10.0577 15.1794
O 19.0541 11.2577 16.4629
O 17.772 10.0191 17.7511
O 18.9918 11.3978 18.9206
O 17.7432 10.1089 20.2533
O 18.9723 11.3096 21.5887
O 17.7396 12.6 0.0443395
O 19.0197 13.9617 1.37226
O 17.7863 12.5802 2.56955
O 19.0787 13.9696 3.81287
O 17.7166 12.6563 5.03995
O 18.9778 13.9336 6.25771
O 17.737 12.686 7.5909
O 18.9926 13.9662 8.81053
O 17.831 12.7229 10.1098
O 19.059 13.861 11.4254
O 17.7509 12.6925 12.6353
O 18.9067 13.8762 13.9757
O 17.8386 12.5852 15.2414
O 19.0719 14.009 16.487
O 17.7807 12.6735 17.7054
O 19.0532 13.8866 18.9201
O 17.7826 12.7486 20.2124
O 18.9997 13.7921 21.6879
O 17.701 15.1578 0.0329276
O 18.9909 16.4181 1.29367
O 17.7663 15.1921 2.56493
O 18.9821 16.4701 3.85507
O 17.5804 15.2084 4.92043
O 18.8419 16.4622 6.28063
O 17.735 15.1864 7.6739
O 18.9537 16.4653 8.88977
O 17.7182 15.2281 10.1547
O 19.0467 16.4985 11.3957
O 17.7792 15.2222 12.6106
O 19.019 16.4748 13.9451
O 17.7323 15.2409 15.2112
O 18.9809 16.4525 16.4811
O 17.6761 15.1831 17.7341
O 18.9955 16.5223 19.035
O 17.6956 15.1801 20.2621
O 18.9665 16.4463 21.5461
O 17.7686 17.7227 0.0100639
O 19.0401 18.913 1.27767
O 17.7982 17.7079 2.61056
O 19.0258 18.9614 3.87759
O 17.6139 17.7687 5.03647
O 18.8762 19.0076 6.29516
O 17.7272 17.7493 7.65748
O 19.04 18.9608 8.8506
O 17.7124 17.7347 10.2186
O 19.1049 19.0263 11.4472
O 17.7287 17.7739 12.6486
O 19.069 19.043 13.9123
O 17.7692 17.757 15.2276
O 19.0226 19.0689 16.4977
O 17.7228 17.6768 17.7159
O 18.9548 18.9652 18.9904
O 17.7138 17.7037 20.3159
O 19.0091 18.9475 21.4883
O 17.7381 20.2565 0.0062192
O 19.0166 21.6257 1.21798
O 17.7727 20.2764 2.53082
O 19.08 21.3939 3.89821
O 17.7102 20.2091 5.07058
O 19.0129 21.4543 6.38358
O 17.7121 20.1888 7.68935
O 19.0512 21.4786 8.90181
O 17.7543 20.2197 10.2039
O 18.978 21.4982 11.5028
O 17.6545 20.2974 12.7115
O 19.0514 21.5881 13.9235
O 17.7153 20.2267 15.1573
O 19.0134 21.4923 16.3799
O 17.7513 20.3388 17.7889
O 18.9738 21.6225 19.0975
O 17.7443 20.2997 20.3991
O 19.0858 21.6264 21.5712
O 20.2835 0.0668723 22.8094
O 21.4645 1.26703 1.28761
O 20.1565 22.7968 2.55929
O 21.5538 1.19784 3.72247
O 20.3219 22.7675 5.12193
O 21.5188 1.29041 6.27456
O 20.267 22.7801 7.55566
O 21.5735 1.25627 8.9437
O 20.2847 22.7446 10.1983
O 21.6188 1.25997 11.3591
O 20.2721 0.000644756 12.704
O 21.4957 1.3221 14.004
O 20.2665 0.057197 15.3087
O 21.4968 1.4767 16.5766
O 20.1943 22.7837 17.7241
O 21.548 1.35652 18.9068
O 20.2623 0.0659978 20.2097
O 21.3932 1.31339 21.5415
O 20.1648 2.60695 0.0177054
O 21.4287 3.8415 1.23754
O 20.2132 2.5904 2.4808
O 21.5837 3.79622 3.76556
O 20.3459 2.56845 5.01761
O 21.5626 3.76917 6.3277
O 20.2915 2.48274 7.68149
O 21.6211 3.81125 8.83547
O 20.3014 2.5236 10.076
O 21.5761 3.704 11.3523
O 20.3588 2.45658 12.6716
O 21.5 3.85104 13.9476
O 20.205 2.61042 15.2405
O 21.5021 3.80162 16.5763
O 20.1889 2.63261 17.8314
O 21.4814 3.85623 19.0648
O 20.2736 2.61622 20.3804
O 21.5547 3.8768 21.5298
O 20.1701 5.04179 22.7928
O 21.4243 6.27193 1.28283
O 20.1892 5.0704 2.60076
O 21.5618 6.24019 3.79065
O 20.3074 5.01996 5.07357
O 21.6269 6.30035 6.32897
O 20.3704 5.06764 7.59723
O 21.6865 6.30604 8.83906
O 20.4312 5.06408 10.1615
O 21.6392 6.44403 11.4135
O 20.3692 5.07973 12.5811
O 21.6424 6.19968 13.956
O 20.231 5.0301 15.1997
O 21.5312 6.24329 16.4696
O 20.1203 5.14358 17.6991
O 21.5453 6.26416 18.9204
O 20.2697 5.1317 20.3909
O 21.4966 6.3635 21.6245
O 20.3258 7.60045 0.0888825
O 21.4818 8.82383 1.28681
O 20.2565 7.56873 2.62999
O 21.6049 8.88011 3.81352
O 20.4269 7.52384 5.06994
O 21.5547 8.83078 6.35929
O 20.374 7.50278 7.57998
O 21.5929 8.87631 8.79582
O 20.3782 7.63091 10.0745
O 21.5853 8.87316 11.4231
O 20.3297 7.6053 12.5995
O 21.5975 8.94716 13.857
O 20.3631 7.46807 15.1283
O 21.5174 8.92977 16.4149
O 20.2647 7.61284 17.7093
O 21.5036 8.80029 19.0695
O 20.2648 7.56655 20.2328
O 21.4883 8.88695 21.5634
O 20.3086 10.1265 0.00691025
O 21.5375 11.3999 1.21017
O 20.3215 10.1258 2.57839
O 21.5809 11.4617 3.85122
O 20.3633 10.1564 5.06043
O 21.5975 11.4565 6.34704
O 20.34 10.1693 7.574
O 21.5781 11.4865 8.81246
O 20.3473 10.1382 10.1013
O 21.5755 11.4388 11.3345
O 20.3362 10.1624 12.6466
O 21.5896 11.3949 13.9197
O 20.3036 10.1609 15.1939
O 21.5308 11.3911 16.4742
O 20.288 10.1219 17.7232
O 21.4744 11.3958 19.0723
O 20.2672 10.1324 20.2644
O 21.5367 11.3524 21.513
O 20.2942 12.5974 0.0922847
O 21.567 13.9651 1.30964
O 20.3062 12.6093 2.55732
O 21.6084 14.0155 3.69314
O 20.368 12.7495 5.11604
O 21.6013 14.0732 6.3305
O 20.2477 12.6679 7.54021
O 21.5094 13.9117 8.85993
O 20.2802 12.7149 10.2053
O 21.5971 13.9246 11.4593
O 20.3611 12.6224 12.6442
O 21.5992 13.8017 13.9983
O 20.205 12.6194 15.2754
O 21.5515 13.9388 16.3759
O 20.2781 12.6804 17.7109
O 21.5377 13.8327 18.9891
O 20.1816 12.5925 20.3136
O 21.4458 13.9214 21.5568
O 20.2713 15.2061 0.0656963
O 21.5864 16.5238 1.2324
O 20.3236 15.1788 2.55742
O 21.518 16.5968 3.80116
O 20.3343 15.2885 5.03671
O 21.6698 16.3801 6.34857
O 20.2375 15.271 7.62875
O 21.5305 16.522 8.85746
O 20.3072 15.1692 10.1795
O 21.605 16.4785 11.3644
O 20.2547 15.1389 12.7269
O 21.4964 16.4562 13.9262
O 20.3252 15.1427 15.0921
O 21.3862 16.4837 16.4495
O 20.2802 15.239 17.6577
O 21.5032 16.4169 19.041
O 20.1894 15.1049 20.2552
O 21.4165 16.5236 21.4427
O 20.1943 17.7032 22.7946
O 21.4813 18.955 1.17411
O 20.221 17.624 2.54912
O 21.5368 18.9172 3.7569
O 20.3006 17.6737 5.18513
O 21.5909 18.9341 6.40971
O 20.2363 17.608 7.47776
O 21.4579 18.9738 8.78279
O 20.2851 17.7183 10.1499
O 21.5888 18.9336 11.3362
O 20.2509 17.6994 12.6791
O 21.4472 18.9877 13.9688
O 20.2376 17.7655 15.2323
O 21.4799 19.0543 16.5318
O 20.2089 17.739 17.7475
O 21.5103 19.0424 18.9597
O 20.2716 17.7437 20.2495
O 21.4504 18.9682 21.5813
O 20.2179 20.2639 0.0588769
O 21.5101 21.6254 1.26523
O 20.193 20.2573 2.43724
O 21.4797 21.5065 3.78048
O 20.3971 20.1983 5.13679
O 21.5921 21.4853 6.35672
O 20.229 20.2804 7.64023
O 21.5232 21.4914 8.9025
O 20.334 20.2859 10.218
O 21.537 21.606 11.4866
O 20.3145 20.231 12.6053
O 21.499 21.5186 13.9987
O 20.3165 20.3041 15.2348
O 21.5229 21.5158 16.4406
O 20.2239 20.3282 17.8936
O 21.5746 21.626 19.0338
O 20.3017 20.3523 20.2596
O 21.4952 21.6065 21.601
